19        
obj01
C       2.6332852509    -1.3203137670     0.0147608777
C       1.6068741364    -0.2265431429     0.0345689859
C       1.8363849670     1.1257545652     0.1016585658
C       0.1732994951    -0.3893568642    -0.0117526108
C      -0.4063909987     0.9100239076     0.0304150560
C      -0.6763617707    -1.5090589160    -0.0824141812
N       0.6332691853     1.8154578910     0.0973069940
C      -1.7914625583     1.1128055744     0.0030820707
C      -2.0536384836    -1.3135536240    -0.1090357219
C      -2.6056226646    -0.0144826908    -0.0672775433
H       2.5654303420    -1.9228922964    -0.9010689348
H       3.6483176277    -0.9106476501     0.0662939674
H       2.5088255126    -2.0071085906     0.8626984145
H       2.7745666059     1.6633438246     0.1515003475
H      -0.2631203005    -2.5145372424    -0.1150568144
H       0.5363804930     2.8179654265     0.1463738761
H      -2.2184854951     2.1126217611     0.0343529753
H      -2.7185820950    -2.1718081488    -0.1635270498
H      -3.6854589738     0.1079209269    -0.0901072638
