2150 

O   3.451482891 -7.560330623 -2.652287516
O   4.374710446 -4.926513338 -4.847170682
O   5.354666178 -6.724763014 -7.242984273
O   0.877191182 -8.360997518 -5.898443263
O   1.887039962 -8.909147171 -3.647766633
O   2.955719293 -5.736991310 -3.305799328
O   4.001171363 -5.063259324 -6.651296194
O   4.978288617 -8.051033967 -7.610571798
O   5.910395096 -8.665721379 -5.384618065
O   1.353461463 -7.703432786 -3.615434688
O   2.287692373 -5.049658012 -4.704796809
O   3.275056759 -6.290218796 -7.899041873
O   4.327198135 -9.610475988 -6.875447959
O   5.389566065 -8.804185342 -4.008390343
O   0.886171701 -6.848854064 -4.547562420
O   1.932902110 -5.302427231 -6.246761422
O   2.898423139 -7.905132537 -8.072779829
O   3.818304003 -10.184842145 -5.464118975
O   4.761916194 -7.915136031 -3.035354276
O   5.782991431 -6.095915359 -4.928744434
O   1.281745950 -6.653086134 -6.929970133
O   2.330660803 -9.424693307 -6.989213891
O   3.396296585 -9.577714708 -3.647420542
O   4.409656726 -6.263758002 -3.121133052
O   5.357017965 -5.548265298 -5.914932254
O   0.792220150 -7.442159959 -6.193231824
O   1.728452048 -9.610505412 -5.624364542
O   2.682961269 -8.114497264 -2.837524708
O   3.705743217 -4.938473136 -4.318146525
O   4.773362336 -6.146976786 -7.428628773
O   5.810443758 -8.482326680 -6.352903518
O   1.326234414 -8.931722391 -4.417706745
O   2.332692937 -6.530546994 -3.055383858
O   3.268524868 -4.748790310 -5.896583576
O   4.191021131 -7.458411543 -8.056770019
O   5.167684641 -9.571466342 -5.747234179
O   0.716024924 -7.551209125 -4.957457633
O   1.710424242 -5.538635455 -4.431717883
O   2.777276100 -5.798166890 -7.508264938
O   3.822818338 -9.204881873 -7.501197002
O   4.800622876 -9.578459974 -4.299934766
O   5.732842479 -7.077896266 -3.933960965
O   1.175265535 -5.880423787 -5.521607916
O   2.109559878 -7.296379610 -7.818578468
O   3.096376293 -10.126115844 -6.001800137
O   4.148660005 -8.447482945 -2.936060751
O   5.213522717 -5.666776212 -4.298402690
O   6.188255805 -7.426599135 -5.502732178
O   1.747087920 -8.663635971 -7.221464418
O   2.715047282 -9.924365883 -4.412451240
O   2.037467977  2.119460115  9.687754158
O   2.979518402  4.089599400  6.922173576
O   3.994906387  1.789748874  5.290752488
O  -0.489404148  0.152239529  6.613192582
O   0.554836679  0.501963656  9.179844831
O   1.619756321  3.749738711  8.681186525
O   2.633547079  3.605720591  5.298147371
O   3.581288248  0.598179744  5.099170043
O   4.522530229  0.974491585  7.091192135
O  -0.046847760  1.813311741  8.991433500
O   0.907037910  4.176300388  7.076499684
O   1.929396493  2.103728681  4.286791531
O   2.997913659 -0.757407543  6.113635140
O   4.040337649  0.734841352  8.412772127
O  -0.461479655  2.681920404  8.045432247
O   0.550430884  3.608197835  5.634709630
O   1.487729458  0.528496187  4.468970912
O   2.409795741 -1.048737537  7.577881347
O   3.383961403  1.717656777  9.268330123
O   4.438064510  2.490588501  7.038346911
O  -0.064037287  2.075135410  5.056735399
O   1.000668111 -0.781672524  5.847595308
O   2.046172591 -0.100421083  9.164343719
O   3.024437266  3.180028343  8.897865453
O   3.956099693  3.147376651  6.183010906
O  -0.599232124  1.229145744  5.750141527
O   0.334365734 -0.702176115  7.340410454
O   1.320390829  1.579655864  9.699381338
O   2.372669345  4.249651165  7.434866935
O   3.439628844  2.331796125  4.878860131
O   4.438725661  0.795068065  6.541532178
O  -0.037438311  0.176644070  8.444448175
O   0.933694729  3.050460986  9.143156060
O   1.854523050  4.106021488  5.882948249
O   2.795404487  0.952239572  4.485924678
O   3.806964275 -0.335229237  7.176486195
O  -0.661651614  1.554326469  8.157049497
O   0.376483640  3.853789429  7.547521577
O   1.440548754  2.758676753  4.530522347
O   2.454641966 -0.543051108  5.349909750
O   3.402488939 -0.154451860  8.449728126
O   4.339809880  2.093993209  8.024575069
O  -0.223290262  3.316068441  6.398757029
O   0.729494543  1.116783227  4.510710994
O   1.751229176 -1.171255565  7.067627278
O   2.820442317  1.215510007  9.539938124
O   3.867031531  3.347190153  7.590584391
O  -0.654898254  2.197616212  5.984670819
O   0.365511868 -0.098070356  5.376285486
O   1.304708961 -0.630412984  8.546441488
O   1.655354794  3.012758971 -4.460923566
O   2.627627580  4.161134450 -7.589828217
O   3.673610072  1.661883653 -8.257895127
O  -0.812081324  0.045774191 -6.980662248
O   0.250143185  1.264688892 -4.439349223
O   1.295529031  4.347282813 -5.751108836
O   2.274108059  3.422753682 -8.964280947
O   3.204927696  0.596773974 -8.430613889
O  -1.344590361  1.062691414 -6.536337849
O  -0.413499331  2.645689229 -4.893284116
O   0.571393159  4.462239522 -7.507543475
O   1.623478697  1.713948925 -9.661715034
O   2.692169780 -0.481834403 -7.229478309
O   3.701064359  1.453287251 -5.708607352
O  -0.796602311  3.412164981 -5.968152719
O   0.178690460  3.596062103 -8.774970981
O   1.100445013  0.233260650 -9.153597346
O   2.040495125 -0.506751532 -5.746607715
O   3.049370181  2.504860796 -4.934425877
O  -1.402536453  2.530945574 -7.102446024
O  -0.373532782  1.903158882 -9.148717964
O   0.689580164 -0.767809996 -7.545155374
O   1.703904459  0.694520689 -4.472512081
O   2.651700826  3.747096274 -5.482796990
O   3.585677209  2.996674047 -7.887711230
O  -0.969626285  1.023353542 -8.314381715
O  -0.018696900 -0.385601424 -5.973817764
O   1.002150768  2.524061321 -4.271149585
O   2.071837551  4.485720479 -7.124957015
O   3.121748072  2.090046079 -8.956117608
O  -1.429459560  1.307444008 -7.122367287
O  -0.391158304  0.703343080 -5.055544607
O   0.550441418  3.819596770 -5.133708304
O   1.472481719  4.036430507 -8.607520215
O   2.443335484  0.670716188 -9.123550789
O   3.485176019  0.326948986 -6.362647221
O  -0.988983837  2.171080655 -5.377231671
O   0.070401567  4.341040429 -6.893416375
O   1.115639922  2.476529752 -9.614313465
O   2.094456197 -0.520997119 -8.051782210
O   3.024328877  0.572531725 -5.244326977
O   3.994653213  2.053271032 -6.606593880
O  -0.589148585  3.556314183 -8.061096869
O   0.394140878  0.753663430 -9.303537075
O   1.445805840 -0.793619296 -6.199803783
O   2.515886771  2.074996726 -4.486347394
O   3.531291851  3.416340797 -6.761757322
O  -0.986060249  2.391997937 -8.430974107
O  -0.005180742 -0.239403948 -8.192909988
O   0.917819557  0.049760427 -4.880907151
O   3.502164020  8.059597854  7.926915126
O   4.509129146  8.295581476  4.703073570
O   5.573084960  6.042891187  5.205261722
O   1.092077502  4.328794372  6.249929689
O   2.154195598  6.326354604  8.490122782
O   3.168735996  9.034564700  6.452825522
O   4.116411268  7.407734185  3.593992871
O   5.047440828  4.970256134  4.792892101
O   0.502091933  5.381070477  6.757715407
O   1.449891794  7.723060592  7.739100268
O   2.469517346  8.793710216  4.623048705
O   3.539437283  5.594160763  3.267811369
O   4.592009682  4.187386394  6.055794328
O   5.558546133  6.269094100  6.595793893
O   1.067744017  8.294732853  6.518630553
O   2.012350389  7.667877761  3.585427283
O   2.934761811  4.247643073  4.069036090
O   3.904572371  4.418514165  7.524261411
O   4.943990476  7.363493652  7.405175650
O   0.478785660  7.540355934  5.296627334
O   1.534931023  5.880569157  3.499146688
O   2.580053754  3.623542913  5.809988541
O   3.559091345  5.766951891  8.451797179
O   4.488016540  8.413102791  6.782971114
O   5.444967714  7.016297830  4.980482772
O   0.881163673  5.016647325  4.544103072
O   1.862196080  4.336820850  7.391112400
O   2.913171535  7.649955875  8.275322497
O   3.984318364  8.781532421  5.079518577
O   5.004476685  6.175135065  4.057906473
O   0.466817306  5.094610434  5.669223485
O   1.455664317  5.609196967  8.057614513
O   2.380246976  8.727059219  7.148560333
O   3.319464333  8.050591045  3.701683280
O   4.325071118  4.750385536  4.106678279
O   5.384303625  5.377555196  6.552234535
O   0.912244684  7.135406666  7.573452360
O   1.973406128  8.898560969  5.314398365
O   2.988206443  6.385394392  3.084544559
O   3.935757480  3.862865766  5.283792087
O   4.864193005  5.564114720  7.612530325
O   0.332239831  7.157301028  6.403956040
O   1.274379922  7.839022680  4.185692347
O   2.292360165  4.667224787  3.753683800
O   3.362255577  3.981618616  7.157152406
O   4.416947488  7.071766362  8.034622188
O   5.394675314  7.546647517  5.725428327
O   0.881167703  6.592682645  3.987988462
O   1.829534912  3.944760864  5.066471283
O   2.752551368  5.089546769  8.280619146
O   1.053917368  10.994327721  4.007664220
O   2.091876726  10.323499066  0.995151169
O  -2.366121739  8.313499464  1.749049261
O  -1.313729387  6.800725954  3.367408920
O  -0.268615223  9.430409945  5.091044317
O   0.710685089  11.594245783  2.457425031
O   1.638729456  9.377193708  0.116218757
O   2.588629235  7.554176928  1.858922213
O  -1.959637657  8.010861074  3.852892848
O  -0.981803399  10.770669862  4.026216542
O   0.068168569  10.973998737  0.657638348
O   1.140071485  7.583916349  0.177658213
O   2.163830845  7.001068015  3.055499203
O  -2.398593529  8.925358668  3.228470368
O  -1.396123640  11.081034636  2.687253082
O  -0.469599980  9.635016085 -0.113709637
O   0.469534144  6.405886554  1.242262402
O   1.474183450  7.476627102  4.467683627
O   2.531984101  10.009528115  3.475008392
O  -1.936082675  10.229169954  1.425255956
O  -0.875706771  7.849140124  0.139530923
O   0.139461715  6.182519761  3.005013192
O   1.086941555  8.873912433  5.062880560
O   2.013113061  10.947820676  2.859403937
O  -2.495572557  9.038629162  2.160671818
O  -1.568005139  7.064711423  1.423130024
O  -0.552207554  7.237563660  4.506916516
O   0.517388520  10.691856111  4.496472261
O   1.573739243  10.962096241  1.222556936
O   2.558100982  8.419807919  1.017327520
O  -1.973957330  7.244887524  2.578835086
O  -1.020822222  8.647873862  4.878524622
O  -0.096984990  11.520089520  3.148279574
O   0.871566106  9.971322729 -0.011297511
O   1.908664461  7.030076960  1.254676653
O   2.964526484  8.658140667  2.807988513
O  -1.495468022  10.153856360  4.157290872
O  -0.450155846  11.312715578  1.347911671
O   0.529505042  8.307232220 -0.241771240
O   1.456783182  6.404158497  2.456804750
O   2.401486876  8.562278574  4.122618464
O  -2.130792705  10.203368460  2.899087056
O  -1.157609915  9.972117225  0.331783877
O  -0.109007011  6.699508470  0.787880995
O   0.963353924  6.905917654  4.224484948
O   1.989879338  9.958736179  4.276192672
O   2.929641223  9.469078242  2.284723482
O  -1.580296232  8.668929852  0.381930709
O  -0.651443013  6.277334751  2.253267063
O   0.287777548  8.242383790  5.120897710
O   3.807514658  11.644881149 -0.959225736
O   4.865014992  10.185796291 -3.452055057
O   0.397925339  8.194706129 -2.837735668
O   1.457941715  7.331683675 -0.474171403
O   2.473661050  10.409990573  0.579132205
O   3.421172291  11.898099224 -2.493248346
O   4.345395383  9.239251155 -4.173513863
O   5.332391525  8.316336256 -2.093605343
O   0.774027575  8.734864637 -0.087940600
O   1.786946359  11.605156929 -0.793642368
O   2.855950357  10.910733753 -4.144412278
O   3.913560474  7.590756385 -3.762449204
O   4.902420284  7.789335279 -1.048842787
O   0.353065519  9.670785337 -0.630166680
O   1.312484365  11.614655695 -2.204530680
O   2.237337195  9.405440971 -4.624985912
O   3.205547335  6.620131133 -2.464968721
O   4.242169330  8.480217580  0.257558755
O   5.299560504  10.235005354 -1.438391239
O   0.837600326  10.577983161 -3.417018967
O   1.883459580  7.728860171 -4.021404456
O   2.863637247  6.776974716 -0.782258086
O   3.790300788  9.855837009  0.569959995
O   4.730905777  11.207814689 -1.994188126
O   0.216913889  9.411710394 -2.981930377
O   1.182858450  7.098393100 -2.501230887
O   2.229664462  8.154993259  0.537066641
O   3.302195499  11.485263153 -0.352973301
O   4.330846327  10.945720781 -3.458311997
O   5.281569813  8.748466433 -2.890077385
O   0.751209405  7.487088481 -1.338270737
O   1.682824211  9.651918180  0.590441522
O   2.622260192  12.037464303 -1.880386324
O   3.625778507  9.725350152 -4.499581832
O   4.683513211  7.412782100 -2.540319766
O   0.214334659  8.814118409 -0.968518992
O   1.275054176  11.037348245 -0.395293625
O   2.291597958  11.465550943 -3.540903416
O   3.239289272  8.146891889 -4.384735788
O   4.161869571  6.980986311 -1.357361627
O   5.138364496  9.367427403 -0.534435611
O   0.601491424  10.997419275 -1.798207303
O   1.610594210  9.864733984 -4.359196970
O   2.678693758  6.762918966 -3.030418520
O   3.737212730  7.805527464  0.188376036
O   4.729278048  10.589450209 -0.504034255
O   0.161627444  10.106907179 -2.347502384
O   1.130306452  8.551666948 -4.021274339
O   2.056343981  6.658986128 -1.462342287
O   3.024331207  9.330805774  0.822013987
O   1.402526509  9.116306433 -4.957695647
O   2.462165443  7.099208429 -6.655003388
O  -2.004491460  5.141190251 -6.131539304
O  -0.957510878  5.037298342 -3.371371563
O   0.023403121  8.361349929 -3.084151584
O   0.949634300  9.078710903 -6.414683927
O   1.886928244  6.171598447 -7.317676621
O  -2.602055465  6.165591465 -5.242797012
O  -1.650060108  6.626023898 -3.161738053
O  -0.605558343  9.314755968 -4.726854439
O   0.466864044  7.781429816 -7.802866465
O   1.497131916  4.761341035 -6.648229078
O   2.453335382  5.642788105 -4.332520148
O  -2.091323646  7.545954056 -3.841015615
O  -1.156445806  9.005303992 -6.157653775
O  -0.216709853  6.157536992 -7.971635013
O   0.786475606  4.044201997 -5.160312780
O   1.844711384  6.485452980 -3.168476680
O  -2.633124858  7.070436579 -5.268386640
O  -1.566929237  7.761374390 -7.217517981
O  -0.549169143  4.689219162 -7.048186115
O   0.398895938  4.528460558 -3.632573578
O   1.320131854  7.805407788 -3.074566996
O   2.289758448  8.316120623 -5.760120920
O  -2.227657638  6.490210623 -6.750482350
O  -1.223720053  4.292674709 -5.324898286
O  -0.156859871  6.172171946 -2.598876313
O   0.902258579  9.143124211 -4.273010762
O   1.896653313  7.908097331 -7.002385676
O   2.822324303  6.473198105 -5.646004599
O  -1.709722088  4.937324265 -4.203459644
O  -0.782364873  7.703894213 -2.874906880
O   0.185463560  9.389606878 -5.931177891
O   1.221766240  6.510181129 -7.799396464
O   2.283669705  5.033548470 -5.410910093
O  -2.190055468  6.301739176 -3.810635895
O  -1.140971194  8.869101433 -4.107481857
O  -0.159028932  8.503289791 -7.367331084
O   0.766979003  5.068253084 -7.400628041
O   1.701583725  4.721145334 -4.253899492
O   2.722566000  6.974349253 -4.485797532
O  -1.824149084  8.652157274 -5.645172044
O  -0.782567357  6.696789974 -7.901242301
O   0.289476249  4.008339497 -5.800011526
O   1.320950316  5.763896608 -3.007548564
O   2.280467936  8.083283755 -4.312561254
O  -2.275811421  7.754384978 -6.220089147
O  -1.337040204  5.426080364 -7.260786207
O  -0.396970923  4.236181061 -4.181234181
O   0.605948804  7.423624775 -2.676166190
O   9.405082377  9.074930377  4.321342321
O   10.445348120  6.828846399  3.669884444
O   5.988488533  4.858327768  4.000633382
O   7.008022285  5.559684607  6.874586283
O   7.956701017  8.918276211  6.351829861
O   8.876885640  8.808928586  2.967136679
O   9.841479462  5.899854685  2.912195767
O   5.344084235  5.730516014  4.995602169
O   6.340660137  7.290602520  6.833186681
O   7.405918913  9.541197771  4.514661793
O   8.465363915  7.300668958  1.927711220
O   9.461457734  4.761903552  3.712987811
O   10.395751533  6.193700051  5.388267448
O   5.849163213  8.136633575  5.947286380
O   6.777925698  8.908134808  3.116544963
O   7.745603860  5.614002209  2.091880586
O   8.781885209  4.342641386  5.325650566
O   9.845924425  7.079970410  6.440674637
O   5.362000627  8.026264934  4.617756144
O   6.415096094  7.483545973  2.304346643
O   7.398445834  4.426840091  3.273990789
O   8.324464586  5.088462049  6.657780934
O   9.256898810  8.342658997  6.376834690
O   10.264702360  7.942151643  3.892674666
O   5.742797468  6.118861840  2.922826618
O   6.780683186  4.338408080  5.132707014
O   7.852086403  6.902101653  7.323650337
O   8.884432604  9.330410541  5.018656764
O   9.846068271  7.554558848  2.827416423
O   5.279592920  6.009128458  3.947652120
O   6.223208305  5.253471952  6.159399158
O   7.163581713  8.413937860  6.713072531
O   8.166243680  9.241952238  3.294393329
O   9.225740035  6.059861268  2.310631996
O   10.272565598  5.543604704  4.791542198
O   5.802288314  6.700791003  6.421129270
O   6.824406562  9.279322537  5.287639066
O   7.773988579  8.110918252  2.134331983
O   8.693411038  4.772892879  2.932025407
O   9.654157773  5.270379847  5.948556041
O   5.180492689  7.234646140  5.163158571
O   6.164974810  8.814212477  3.666058518
O   7.228235799  6.188332907  1.956269061
O   8.287768319  4.101928121  4.666060944
O   9.285093792  6.404939501  6.878579285
O   10.222351899  8.087768955  5.127592438
O   5.668343825  7.775237881  3.165297695
O   6.598517437  5.012513780  2.898240372
O   7.565993599  4.672168737  6.274444904
O   8.602255851  8.121462701  6.875424135
O   12.514845383  7.843646070 -0.234865426
O   8.014033968  5.758244201 -0.185520789
O   9.076640486  3.674541460  0.318286493
O   10.061888631  5.164841241  3.053327680
O   10.988176626  8.343519466  1.725129633
O   11.918888258  7.401654193 -1.487048150
O   12.919141426  4.790348761 -0.695398243
O   8.417045396  4.639166247  1.390334874
O   9.450195908  6.960685116  2.699853846
O   10.520705997  8.574769739 -0.197913891
O   11.553654342  5.805959997 -2.141112659
O   12.516658574  3.879369250  0.102550076
O   7.938503005  5.746573042  0.617941911
O   8.890449974  7.675207053  1.588501095
O   9.831016703  7.621656009 -1.507704961
O   10.833371282  4.128788376 -1.627957877
O   11.893465892  3.781919685  1.748252539
O   12.945172807  6.486435886  1.942386011
O   8.460889938  7.513466296  0.223358272
O   9.486842582  6.077358684 -2.002499274
O   10.437673823  3.261789208 -0.261866498
O   11.356620308  4.728718934  2.873305109
O   12.314378390  7.712330605  1.771595530
O   13.365723534  6.340118832 -0.006329752
O   8.836105976  4.677082491 -1.158381931
O   9.896926752  3.534063284  1.632998984
O   10.956340821  6.590202422  3.129684654
O   11.954548261  8.351934495  0.378682969
O   12.893073818  6.216765226 -1.148864225
O   8.334915478  4.577302868 -0.075396609
O   9.266357390  4.714269012  2.512617830
O   10.233511047  8.018349994  2.185658383
O   11.269700608  7.912147091 -1.325245521
O   12.337423095  4.726563376 -1.391867659
O   13.348430032  5.257190972  0.770850385
O   8.890601458  6.211564727  2.541894320
O   9.878392031  8.536375500  0.642022285
O   10.805232686  6.607235061 -2.189872049
O   11.734617201  3.592308880 -0.595582636
O   12.729740209  4.878893883  2.011203122
O   8.246136112  6.873428880  1.314495477
O   9.273004140  7.774320781 -0.979763603
O   10.342378187  4.684968290 -1.973508557
O   11.375715040  3.323789276  1.144798808
O   12.339591096  5.988375488  2.677099647
O   13.272311396  6.835748189  0.688653330
O   8.711908643  6.563246709 -1.334421045
O   9.652442953  3.659023409 -0.741965998
O   10.654381625  4.237352892  2.666327877
O   11.714980394  7.662070823  2.332570189
O   9.695747267  9.855766071 -3.727757680
O   5.195283761  7.866977808 -3.966534848
O   6.227242177  5.993971200 -2.384276661
O   7.179735710  8.203196423 -0.013873188
O   8.098490263  10.988268034 -2.091993489
O   9.053922499  9.275392304 -4.891616846
O   10.090569231  7.318560229 -3.351169538
O   5.586016812  7.143428653 -1.305844860
O   6.643888755  9.959416742 -0.712932567
O   7.703012274  10.810487180 -3.974749014
O   8.701843305  7.713445472 -5.181655899
O   9.640818700  6.487823119 -2.669598467
O   5.081257419  8.138344554 -1.659933160
O   6.013475688  10.489126016 -2.042183622
O   6.980103336  9.550525929 -5.132450392
O   8.016115324  6.136779987 -4.321530265
O   9.085339409  6.693829956 -1.096378617
O   10.107442596  9.019035029 -1.771744378
O   5.628511447  10.142429976 -3.409633690
O   6.619716561  7.963736026 -5.274267239
O   7.547420185  5.598623103 -2.842569371
O   8.475831771  7.796159460 -0.174511443
O   9.467257035  10.251734144 -1.994535885
O   5.003092216  8.757480957 -3.525139164
O   6.020807261  6.616123318 -4.165170465
O   7.088814050  6.247339634 -1.030724518
O   8.122377895  9.579492329 -0.317693557
O   9.086791755  10.605032239 -3.318673912
O   10.018671507  8.324272234 -4.074345370
O   5.459550468  6.645495483 -2.965187935
O   6.399648709  7.673265227 -0.351316065
O   7.400999716  10.847099201 -1.580117433
O   8.461967388  9.827349681 -4.899302082
O   9.520799003  6.930863104 -4.122062110
O   4.998844661  7.627688743 -2.235366414
O   6.041860916  9.153118128 -0.612743835
O   6.996514485  11.003740679 -3.164358631
O   7.915359656  8.407549604 -5.470977324
O   8.868998043  5.941154481 -3.183524720
O   9.898734376  7.857297801 -1.275749857
O   5.411064984  9.825274587 -1.967486352
O   6.465375051  9.929135679 -4.680397964
O   7.524072416  6.610710343 -4.866906988
O   8.523343910  6.034463281 -1.551019630
O   9.462323591  8.865330421 -0.755229679
O   4.905243444  8.873040172 -2.688951365
O   5.836292255  8.553437885 -4.830924254
O   6.802083876  5.795737210 -3.370643963
O   7.837763872  7.269825020 -0.207207894
O   8.908245825  10.390140307 -1.404954602
O   14.505186319  1.550491003 -1.079833760
O   10.007453416 -0.393807595 -1.430751058
O   11.003324905 -1.795347319  0.886282856
O   11.932232144  1.014672181  2.694332799
O   12.859990677  3.202437514 -0.019972418
O   13.848685642  0.863263187 -2.175957161
O   14.920919881  0.249167256 -0.028566761
O   10.411003083 -0.425886637  1.877121259
O   11.477426556  2.614014266  1.655719651
O   12.511106493  2.648139302 -1.742117618
O   13.475839229 -0.574445074 -2.174255225
O   14.406301008 -1.041487995  0.395306180
O   9.851194160  0.640722467  1.463531668
O   10.790139793  2.907988113  0.134128499
O   11.790659944  1.112084026 -2.674310539
O   12.851825675 -1.949615801 -1.002186680
O   13.913305938 -0.608717247  1.805753404
O   14.888711230  0.907628420  0.330121360
O   10.423512939  2.313559458 -1.165216771
O   11.380938153 -0.441277584 -2.460237738
O   12.300155558 -2.168553816  0.532124049
O   13.252437032  0.616848504  2.529307964
O   14.277938512  2.307060625  0.192310935
O   9.804272766  0.877542485 -1.363380979
O   10.854218567 -1.631608415 -1.086015935
O   11.912395667 -1.172743687  2.141674882
O   12.911990014  2.218074139  2.045238735
O   13.850728925  2.481941422 -1.007631927
O   14.797934431  0.349482874 -0.848417737
O   10.227860365 -1.400933403  0.225811206
O   11.192359187  0.463602994  2.564639402
O   12.227502530  3.239235859  0.505145986
O   13.298990084  1.422826071 -2.363623934
O   14.333392417 -0.933910603 -0.907451534
O   9.816334672 -0.466704554  1.000586083
O   10.818871451  1.849271124  1.994533712
O   11.749358899  3.045775095 -1.052580317
O   12.676754272 -0.067379917 -2.652029542
O   13.663419546 -1.785839496  0.146329695
O   14.719564969  0.480175275  1.060204938
O   10.233174329  2.423470623  0.472317053
O   11.297820107  1.684199364 -2.351450775
O   12.331556844 -1.628383731 -1.713435403
O   13.296477299 -1.412913545  1.594411999
O   14.225373899  1.377339995  1.633637306
O   9.677230888  1.643937828 -0.323895585
O   10.613635789  0.174110703 -2.248161398
O   11.612996755 -2.165896822  0.002409685
O   12.674157195  0.088052307  2.666941772
O   13.737807151  2.669202134  0.765581313
O   13.712629745  4.092624253 -4.946008032
O   9.220432087  2.159895815 -5.427748199
O   10.181405930  1.413430749 -2.610646404
O   11.101276778  4.659598736 -1.529500445
O   12.052564361  6.074794626 -4.701965852
O   13.075270785  3.342874567 -6.025563051
O   8.614371894  2.499147689 -4.060101771
O   9.658710918  2.991076275 -1.809873519
O   10.716323635  5.992726108 -2.858204742
O   11.716183286  5.218596105 -6.172889751
O   12.654561212  2.068635486 -5.835143503
O   13.596022413  2.394270568 -3.463152257
O   9.036784551  4.126501976 -2.395295521
O   9.999313311  6.001058061 -4.528127202
O   11.033661842  3.464755255 -6.803104847
O   12.105895646  0.985982631 -4.427786496
O   13.144315248  2.912497504 -2.243555654
O   8.604747775  4.412211789 -3.498013613
O   9.617961713  5.144246353 -5.683059227
O   10.550450838  2.007930708 -6.253070997
O   11.477745448  1.072117502 -2.882477032
O   12.462908188  4.231189766 -1.718449389
O   13.514315323  4.970170602 -4.269207902
O   9.038841944  3.593231869 -5.806892272
O   10.101550421  1.077702170 -4.655746294
O   11.135339956  2.344004959 -1.572107706
O   12.100388349  5.588972246 -2.452736649
O   13.027735298  5.103752060 -5.355456248
O   8.491566394  3.256259234 -4.663258789
O   9.421840725  1.561313950 -3.266038664
O   10.419606601  4.133434227 -1.462287934
O   11.480527131  6.282617232 -4.195141005
O   12.545924760  3.863714718 -6.414493742
O   13.545301243  2.240084123 -4.509678205
O   9.032410683  2.607019557 -2.577708103
O   9.997975720  5.356160437 -2.327230994
O   10.918781331  5.762762873 -5.674188070
O   11.869377114  2.340562494 -6.425837302
O   12.890191155  1.509706693 -3.374644523
O   8.443335886  3.697064050 -3.629267475
O   9.478782790  5.729595009 -3.997333405
O   10.535851283  4.180454980 -6.659633712
O   11.535976540  1.090088146 -5.240426429
O   12.473959446  2.062018750 -2.135631336
O   13.411043116  4.580244244 -2.834913208
O   8.863487287  4.843848105 -4.845446470
O   9.822997079  2.586751147 -6.259383917
O   10.856232787  0.893282326 -3.378142598
O   11.928947104  3.733839184 -1.409891907
O   12.970521900  5.613201322 -3.792051683
O   7.765753443  5.896070414 -6.543220668
O   3.288304612  3.986887804 -7.479680059
O   4.223276248  4.017593887 -4.397453083
O   5.150706053  7.490241351 -4.162934696
O   6.134769955  8.012595879 -7.554138768
O   7.183837857  5.200532376 -7.934503464
O   2.715602517  4.320536823 -6.036916658
O   3.776278344  5.748579446 -3.879734871
O   4.810179051  8.476532703 -5.696415188
O   5.775357065  6.951465567 -8.728844520
O   6.701251708  4.069567861 -7.664605880
O   7.676904215  5.235252145 -5.885508259
O   3.102615582  6.914040162 -4.697874149
O   4.098205156  8.154268765 -7.447909113
O   5.158619567  5.071040656 -8.992784369
O   6.225384441  3.334845232 -6.135471824
O   7.230465766  5.600724096 -4.707713656
O   2.698301920  7.197610519 -5.817349659
O   3.669994665  7.053640936 -8.393353195
O   4.592017018  3.758860436 -8.136989679
O   5.542170101  3.715434254 -4.619417504
O   6.561699903  6.973381293 -4.377596327
O   7.622885830  6.619717122 -6.726571738
O   3.153622128  5.410792161 -8.330600606
O   4.210255639  3.169944048 -6.395730236
O   5.210705308  5.165993201 -3.665143723
O   6.148323706  8.077044146 -5.264403940
O   7.081810087  6.898223793 -7.803680185
O   2.548064749  4.961240242 -7.224361845
O   3.502761816  3.943773455 -4.984055507
O   4.534496165  7.024108935 -3.915679318
O   5.607419092  8.387500919 -7.099921441
O   6.651479429  5.606101806 -8.551178077
O   7.611991758  4.880666915 -6.472562358
O   3.102823212  5.130032411 -4.476154357
O   4.040842365  8.031249827 -5.042428953
O   4.968616632  7.566781956 -8.458238074
O   5.951890913  4.092459319 -8.287646360
O   6.999756527  4.196285168 -5.297619142
O   2.536191534  6.311061303 -5.254021524
O   3.594884850  8.119970546 -6.796366762
O   4.629029452  5.859392072 -9.067632493
O   5.594394587  3.180445088 -6.956065477
O   6.518982742  4.835406887 -4.240351876
O   7.483049310  6.799026868 -5.608768219
O   2.929128475  7.040576749 -7.644730707
O   3.921747878  4.255244772 -8.338092269
O   4.981356471  3.368685962 -5.050084082
O   6.049140469  6.554622500 -3.895761651
O   7.058367808  7.650626122 -6.506276878
O   6.128066962  0.434155623 -8.035583568
O   7.108612823 -1.908113239 -7.662146081
O   8.032135144 -1.039182056 -4.561491647
O   8.982046183  2.412775264 -5.231066389
O   10.000714255  2.005082694 -8.557840355
O   11.060951808 -0.514010549 -7.984688015
O   6.594163802 -1.430427296 -6.169254569
O   7.650606825  0.757021742 -4.392367137
O   8.651501845  3.014125368 -6.865920531
O   9.588838042  0.833488486 -9.439229501
O   10.519308316 -1.584079212 -7.736244382
O   6.003766775 -0.201052526 -6.257565503
O   6.949778550  1.891906038 -5.477261788
O   7.979535141  2.331743124 -8.607404195
O   9.052388484 -1.054622325 -9.304168364
O   10.098391022 -1.973436850 -6.215195711
O   11.067337685  0.361114842 -5.613167803
O   6.538899587  2.025168079 -6.674252743
O   7.480661787  1.024371757 -9.296044355
O   8.408961446 -2.182949339 -8.174370317
O   9.391678397 -1.307777663 -4.775790090
O   10.438981382  1.741107551 -5.444861686
O   5.977463672  0.795333869 -7.381433664
O   7.034727750 -0.639854079 -8.968181756
O   8.069343128 -2.386548504 -6.391072668
O   9.035006187  0.220000692 -4.188296294
O   9.958466020  2.624231590 -6.403455185
O   10.915387084  0.867583134 -8.348062324
O   6.379186170 -1.093432950 -7.725933495
O   7.367696055 -1.302491111 -5.034233598
O   8.426161868  2.037428432 -4.821682676
O   9.494643339  2.540991433 -8.203187086
O   10.506971030 -0.350733324 -8.850516102
O   5.927025301 -0.225241167 -6.923241348
O   6.925294088  0.005056038 -4.773309202
O   7.850601484  2.791285216 -6.169505775
O   8.800424612  1.444044096 -9.398995061
O   9.818524310 -1.799660232 -8.320988172
O   10.879160343 -0.827433768 -5.729835735
O   6.411546486  1.226180330 -5.615210098
O   7.468275027  2.544588162 -7.913854382
O   8.469805739 -0.282797296 -9.613179830
O   9.406986199 -2.389198741 -6.933263820
O   10.334922221 -0.168770924 -4.784323761
O   11.348615519  0.727357307 -6.707480527
O   6.775559004  1.235686116 -8.694604051
O   7.802744896 -1.802771793 -8.542918802
O   8.875243733 -1.807828028 -5.106783006
O   9.922735584  1.469364059 -4.797811947
O   10.896850633  1.771907196 -7.379867566
O   4.527370491  1.157583826  6.179143210
O   5.473801474 -1.128262466  7.481865789
O   6.402775723  0.572651137  10.346642243
O   7.385101416  3.737709841  8.795774750
O   8.432222726  2.465720388  5.827628636
O   9.481691961  0.706472176  7.295552874
O   5.026674015 -0.425093073  8.948304423
O   6.062114836  2.329818094  10.141299528
O   7.028240077  3.960247926  7.158881153
O   7.950773503  1.254796626  5.200129958
O   8.902427897 -0.503980599  7.394051513
O   4.384458157  0.858515486  8.944119461
O   5.367065609  3.355649745  8.780466589
O   6.424008120  2.917598899  5.538320669
O   7.492888189 -0.511947831  5.719565985
O   8.507556232 -0.619496880  8.793540261
O   9.445578858  1.474760327  8.510260413
O   4.917132519  3.257531480  7.521459283
O   5.844512586  1.447821148  5.138446131
O   6.794355050 -1.416896297  7.090488540
O   7.812082605  0.311250729  10.096703611
O   8.873600522  2.848867146  8.641100089
O   4.402276392  2.128735359  6.695481334
O   5.460240707 -0.141795081  5.769702015
O   6.462679202 -1.234222610  8.811553438
O   7.399870176  1.832118103  10.345738480
O   8.325694331  3.573578261  7.660025147
O   9.320463913  1.444428012  6.575237290
O   4.777291654 -0.513627142  7.195101099
O   5.801147383  0.154215073  10.019707259
O   6.872999293  3.486958862  9.346273520
O   7.921596993  3.141561855  6.019126876
O   8.899187411  0.379438375  6.141567737
O   4.339735931  0.101674203  8.037447213
O   5.292265791  1.542698686  9.992394736
O   6.222026161  3.957786360  7.820491483
O   7.204066640  1.798705383  5.035016577
O   8.251229782 -0.941660899  6.904435112
O   9.305203453  0.719587572  8.759471149
O   4.842451253  2.713589047  8.982649176
O   5.879260681  3.366376897  6.189004851
O   6.846068648  0.146845031  5.194147439
O   7.767896493 -1.253666820  8.285778034
O   8.715452113  1.357846649  9.706640524
O   4.218517000  2.186863286  7.805034035
O   5.191810210  1.827026798  5.555749152
O   6.246795233 -1.181370739  6.583778314
O   7.315795567 -0.318671297  9.909060978
O   8.332225867  2.813337352  9.417613745
O   9.277050378  2.360008469  7.123026366
O   8.846690428  1.540229707  3.258624329
O   9.776433642 -0.391282288  5.348262833
O   10.726353038  2.060374624  7.729863154
O   11.743826691  4.683208048  5.411323688
O   12.806410406  2.718851673  3.065764394
O   8.327396723  1.266028850  4.579736726
O   9.388922693  0.567448106  6.690632209
O   10.392643065  3.678757537  7.165744429
O   11.330048558  4.566535046  3.849120408
O   12.254143490  1.506769759  2.635114172
O   13.239704207  0.588487255  5.090846636
O   8.717722751  1.985783904  6.624573258
O   9.737227168  4.505445629  5.550220241
O   10.808131044  3.204023194  2.464715526
O   11.857507674 -0.025569683  3.472565781
O   12.837518944  0.607722579  6.310328276
O   8.261852396  2.377771572  5.615581358
O   9.223757422  4.131853369  4.270044408
O   10.154367743  1.619279713  2.377119596
O   11.136171860 -0.661958552  5.042894474
O   12.183493539  1.757979204  7.412929018
O   13.241128576  3.524651915  5.401717174
O   8.769340806  2.909460531  3.478409772
O   9.808371835  0.204148938  3.306987323
O   10.776145335 -0.129052834  6.614665249
O   11.697504582  3.217703391  7.373571899
O   12.641804623  4.168884885  4.414383606
O   8.178737629  2.059136233  4.788751517
O   9.129582833 -0.001658450  4.911673203
O   10.182106116  1.522964203  7.574112722
O   11.250967795  4.596873523  6.070701331
O   12.268709686  3.483290391  3.019728759
O   13.217043763  1.072414760  3.827296937
O   8.663892916  0.717908091  5.755109201
O   9.596292240  2.944239582  7.236361390
O   10.546290816  4.756138363  4.415081043
O   11.563562440  1.942518919  2.302882002
O   12.627250090 -0.072474823  4.752625797
O   13.648900489  2.026431518  5.418350296
O   9.204055296  3.962935419  6.030267077
O   10.209567476  3.850112919  2.989168733
O   11.147429135  0.433565695  2.785821762
O   12.070148818 -0.160884802  6.097126830
O   13.049508381  2.598068318  6.664712161
O   8.547161096  3.455844320  4.755770997
O   9.560822389  2.114309849  2.588060045
O   10.630466681 -0.599071391  4.433288762
O   11.680343916  1.041864445  7.418634574
O   12.662059658  3.827950631  6.228299314
O   13.591470948  2.651425777  4.552210923
O   2.199639928 -6.262927525  4.674843612
O   3.131098967 -7.601734904  7.385824828
O   4.112658365 -4.557931870  9.067731044
O   5.160176483 -2.685528347  6.181725613
O   6.220953477 -5.080190354  4.654595769
O   1.737962981 -6.604462410  5.992504761
O   2.780664863 -6.403010491  8.508667691
O   3.749759224 -3.156023335  8.192927562
O   4.670901540 -3.086751633  4.740096412
O   5.612605457 -6.285313867  4.362190700
O   6.639237260 -6.190827659  6.734486141
O   2.111700359 -4.854925515  8.281832056
O   3.161159728 -2.617684114  6.379971645
O   4.229643074 -4.686267136  3.689704395
O   5.248342103 -7.512853319  5.410646585
O   6.198689553 -6.254104378  7.821796858
O   1.637835352 -4.381838381  7.348494016
O   2.573183623 -3.286661179  5.127817480
O   3.523198468 -6.332154319  3.934740661
O   4.540260355 -7.833725259  7.118910597
O   5.605005254 -4.964140066  8.676299495
O   6.638698484 -4.179130114  6.428201596
O   2.174462858 -4.640684881  4.488603610
O   3.182472208 -7.488761187  5.121467425
O   4.121071073 -7.008339286  8.483443123
O   5.042747536 -3.590035810  8.400871095
O   6.017572909 -3.505495449  5.421690165
O   1.535660314 -5.616342876  5.422152835
O   2.540925892 -7.449064305  6.861639505
O   3.608985998 -5.171881077  9.105573373
O   4.659129430 -2.566791194  6.896804810
O   5.642041598 -4.319853394  4.300325771
O   6.574696506 -6.153640180  5.673471745
O   2.019775170 -6.536984957  7.649940108
O   2.951984683 -3.770168920  8.447122759
O   3.933230912 -2.747042790  5.172327907
O   4.980921008 -5.983157208  3.900374496
O   6.044416189 -7.135504396  6.648897295
O   1.546453143 -5.268416494  7.464282471
O   2.595796651 -2.995793048  7.067161053
O   3.566656451 -3.909988726  4.018911986
O   4.487847614 -7.311908875  4.648571145
O   5.427496538 -7.047832970  7.950831059
O   6.444065497 -4.463238816  7.601515066
O   1.937986830 -3.629593968  5.700518133
O   2.983630984 -5.772090615  3.926385375
O   4.051516377 -7.969989903  6.454814981
O   5.070895473 -5.693701979  8.919772791
O   6.022408550 -3.415659284  7.169202236
O   1.455754555 -4.692167162  5.748125520
O   6.855361623 -7.908713769  2.656615273
O   7.805248399 -8.474571450  5.776221974
O   8.822036576 -5.065328329  6.601059199
O   9.887736291 -4.071259353  3.412451649
O   10.928434524 -6.572127962  2.811878021
O   6.447987208 -8.135943451  4.043595288
O   7.459509439 -7.086237310  6.604718314
O   8.399169821 -3.927004360  5.479680548
O   9.320117430 -4.705232165  2.110626202
O   10.291515919 -7.784221919  2.598419202
O   5.835502886 -6.748539287  4.489636062
O   6.825669692 -5.459620261  6.139564010
O   7.891804002 -3.747817188  3.561823177
O   8.942020897 -6.427314129  1.453230795
O   9.925763932 -8.697116354  3.734852621
O   10.859222536 -6.962597155  5.548390537
O   6.301836248 -5.031901727  5.083649462
O   7.234535890 -4.716678646  2.390950613
O   8.215334129 -8.067168660  2.046763813
O   9.263119266 -8.667602734  5.493430947
O   10.328955803 -5.640148644  6.156837617
O   5.800369520 -6.120819067  4.098093026
O   6.871130817 -6.177108251  1.997610849
O   7.844317440 -8.909782773  3.425683269
O   8.765837488 -7.611293024  6.622310329
O   9.703889089 -4.357107729  5.686971255
O   10.714361116 -5.135622749  2.991845899
O   6.226104605 -7.238302677  2.982615240
O   7.266926266 -8.561309197  5.221938082
O   8.334016135 -5.700991423  6.849498653
O   9.353864079 -3.719105505  4.103945538
O   10.306019211 -5.954063775  2.096859777
O   11.244209384 -6.838008125  3.897673167
O   6.677342734 -7.428767796  5.897290378
O   7.626848207 -4.378290425  5.868917405
O   8.643242896 -4.258158535  2.391370572
O   9.709754745 -7.637816738  2.037079855
O   10.755638186 -7.891720789  4.767781245
O   6.258436046 -6.137431653  5.702782035
O   7.275053686 -3.914654379  4.371101610
O   8.216149851 -5.609585563  1.546283047
O   9.136668088 -8.772270200  2.998535033
O   10.105445721 -7.666302607  6.034471167
O   11.157555082 -5.696628756  4.766296924
O   6.649418130 -4.759341049  2.970997796
O   7.713261745 -7.496561510  1.814091276
O   8.763400879 -9.019912979  4.841602794
O   9.747714855 -6.280963768  6.659136085
O   10.681086200 -4.642944942  4.514765546
O   6.124165770 -5.845927000  2.964793506
O   2.700435092 -10.802470124  1.662789790
O   3.680573252 -10.487797692  4.936249774
O   4.728329812 -6.984406225  4.830789843
O   5.796159139 -6.896113969  1.633129627
O   6.799820227 -9.129937070  2.004511947
O   2.328138858 -10.808291006  3.095010279
O   3.304377974 -8.978867255  5.426267348
O   4.226522059 -6.128972180  3.526337613
O   5.163370784 -7.723521866  0.476600071
O   6.169699812 -10.397208917  1.772002036
O   1.698142973 -9.554432620  3.723836691
O   2.732602239 -7.359315896  4.671255263
O   3.798724726 -6.344039655  1.620747926
O   4.818889327 -9.444168173  0.219126503
O   5.771355406 -11.049672511  2.888138707
O   6.706900475 -9.032688363  3.918627745
O   2.143994015 -7.054843999  3.447436452
O   3.092707118 -7.604899133  0.590537237
O   4.108530430 -10.993113958  1.163343566
O   5.175680294 -10.666099733  4.588234046
O   6.225643036 -7.782820701  4.380890372
O   1.709158117 -7.667467439  2.400743091
O   2.733763330 -9.112649865  0.503698186
O   3.676730320 -11.497156721  2.663746006
O   4.597105560 -9.431394262  5.472763222
O   5.563880661 -6.590623751  3.746835884
O   6.606743772 -8.124148278  1.680201898
O   2.116835726 -10.184339652  1.652906607
O   3.177989705 -10.807029120  4.410089895
O   4.227943285 -7.571760812  5.292841251
O   5.212652021 -6.311237750  2.199871437
O   6.145522917 -8.849859815  0.881591068
O   1.592379452 -9.697186708  2.630877572
O   2.523478399 -9.455761739  4.916215839
O   3.502649170 -6.398556009  4.001184517
O   4.550209791 -7.205227527  0.599000496
O   5.619702304 -10.441170258  1.138280974
O   6.633270880 -9.854590251  3.528409090
O   2.140293869 -8.163579280  4.555046710
O   3.120564078 -6.279452354  2.456500450
O   4.043644121 -8.680886473  0.072359662
O   4.979633555 -11.376467484  2.273599565
O   5.983021463 -9.535072980  4.779474604
O   1.529407199 -8.138755955  3.127937485
O   2.554297420 -7.378451993  1.113319254
O   3.619312678 -10.473878474  0.713237659
O   4.639697372 -11.229008691  4.032041644
O   5.592271473 -8.213386572  5.122928095
O   6.525111393 -7.330830546  2.786676465
O   1.968287019 -8.578657775  1.204442325
O   9.796611236 -7.323838191 -0.631031099
O   10.811621707 -6.108457755  2.519889870
O   11.879209199 -2.791887004  1.508134910
O   12.932452236 -3.535330844 -1.416789693
O   8.388329831 -5.317423181 -0.507714027
O   9.429347519 -7.048124990  0.785644815
O   10.374698705 -4.549953091  2.657569162
O   11.295205260 -2.222182831  0.073613202
O   12.260466817 -4.526999325 -2.422911503
O   13.298558095 -6.509300882 -0.485412110
O   8.821667781 -5.696056858  1.441937086
O   9.879678450 -3.044395887  1.597137315
O   10.929386502 -2.820565522 -1.697488427
O   11.914384245 -6.139153720 -2.324789909
O   12.846564173 -7.011120963  0.544361314
O   13.813052571 -5.035069608  0.288750236
O   9.228517787 -2.926434376  0.206321660
O   10.206288805 -4.349401709 -2.519371649
O   11.253443045 -7.498719554 -1.054890778
O   12.324282725 -6.316781554  2.074898105
O   13.344448033 -3.856540816  1.113758876
O   8.831900487 -3.607887593 -0.833279118
O   9.817621642 -5.833330201 -2.274288547
O   10.741969025 -7.663108325  0.503274070
O   11.677399572 -4.944588279  2.712110509
O   12.678665144 -2.753715713  0.345675402
O   13.743212225 -4.829803086 -0.634851503
O   9.256656372 -6.817938160 -0.918909851
O   10.320467512 -6.639561937  2.083565718
O   11.341030767 -3.250321047  2.161507801
O   12.293603119 -2.760831182 -1.083414285
O   13.223904897 -5.398565334 -1.642100967
O   8.675467755 -6.329108925  0.129584625
O   9.620132105 -5.092535126  2.364267312
O   10.634015075 -2.307191934  0.591437858
O   11.701816491 -3.968524286 -2.465908687
O   12.757709234 -6.804373363 -1.151398987
O   13.728213714 -5.481697244  0.543060194
O   9.243259830 -3.863615952  1.766413147
O   10.191616486 -2.536824425 -0.930475663
O   11.112517046 -5.515351136 -2.677606330
O   12.076657734 -7.532805607  0.125714174
O   13.111877546 -5.163127102  1.865222691
O   8.645469796 -3.696714948  0.337894757
O   9.699780086 -3.891209485 -2.111180805
O   10.749238222 -7.098839384 -1.695973820
O   11.734481729 -7.050810943  1.703302451
O   12.665906586 -3.952280896  2.028097414
O   13.619233048 -3.949986796 -0.225921802
O   9.053598980 -5.207925289 -1.839878075
O   6.632647886 -11.162332036 -0.894665335
O   7.679140764 -9.119161477  1.866332681
O   8.751021794 -6.241738676  0.065240847
O   9.776032719 -7.658613866 -2.349466389
O   5.243185344 -9.517892241 -1.773779532
O   6.236717618 -10.584937000  0.435956446
O   7.162687385 -7.573004836  1.659188389
O   8.097820898 -5.957325702 -1.456354827
O   9.097552563 -8.783845480 -3.196274524
O   10.155796817 -9.807742300 -0.898541188
O   5.680720923 -9.081799100  1.002200730
O   6.743294045 -6.291321640  0.320080305
O   7.764051501 -6.883617143 -2.988805870
O   8.716585054 -10.219354633 -2.822957998
O   9.644573278 -10.323047985  0.040786841
O   5.107869798 -8.333987465  0.125514006
O   6.047691545 -6.415570148 -1.209636209
O   7.060043346 -8.632291692 -3.529669852
O   8.127813115 -11.292201888 -1.290388776
O   9.185831294 -9.411930690  1.318012278
O   10.168164371 -7.622549129 -0.211811338
O   5.659734133 -7.270191480 -2.163341007
O   6.611878950 -10.025375451 -2.956525599
O   7.533424445 -11.127158928  0.273140044
O   8.496760424 -7.939163120  1.700695615
O   9.530177101 -6.585839395 -1.066707202
O   5.072781389 -8.619940756 -1.755075167
O   6.122561575 -10.818788143 -1.404499996
O   7.171833949 -9.821202577  1.582231655
O   8.157338354 -6.493067872  0.854019922
O   9.088025622 -6.783705786 -2.345509210
O   10.034722848 -9.269902030 -2.102742892
O   5.483362994 -10.185937877 -0.278313762
O   6.456231308 -8.123509784  1.581739388
O   7.501759501 -5.861217292 -0.930765420
O   8.574383999 -8.220706447 -3.418225992
O   9.603091885 -10.459639288 -1.517775371
O   5.045563177 -9.079344890 -0.156573793
O   6.052357464 -7.028818029  0.727742523
O   6.980334907 -6.424233594 -2.370935585
O   7.915397100 -9.793799170 -3.320335826
O   8.914028532 -10.968473419 -0.135868118
O   9.970071631 -8.374512945  0.663243730
O   5.500826526 -6.915451058 -0.797666168
O   6.562230848 -7.992003944 -3.287850058
O   7.583260581 -11.077279562 -2.069430545
O   8.535778698 -10.239150761  1.207241269
O   9.461700228 -7.262588141  0.764361578
O   4.945241573 -8.249361172 -0.992124963
O   5.872810651 -9.393019931 -2.777094994
O   8.352000651 -8.185530022 -3.993184367
O   9.419471623 -5.471776971 -1.847129474
O   10.479164831 -3.225602724 -4.248821765
O   11.468499036 -5.100082363 -5.973099795
O   6.940857508 -6.997629010 -5.497405428
O   7.897843219 -7.316280591 -2.812521767
O   8.820272019 -3.988753151 -2.382005948
O   9.783055097 -3.230143006 -5.815310664
O   10.815339433 -6.314468304 -6.660922847
O   11.874491161 -5.948477308 -4.442578588
O   7.410222016 -5.677526316 -2.442966645
O   8.459463125 -3.023036747 -3.933471573
O   9.445300831 -4.398483843 -7.041819694
O   10.375325956 -7.554038263 -6.104869953
O   11.317076208 -6.896332839 -3.481320205
O   6.780629875 -4.858292555 -3.381770848
O   7.749233354 -3.438257796 -5.549613096
O   8.793438399 -6.288143560 -7.235120617
O   9.866514858 -8.266192495 -4.411441534
O   10.898083539 -5.900129632 -2.480542406
O   11.839958980 -5.092264965 -4.361376657
O   7.336720081 -4.491840214 -6.340972222
O   8.267131413 -7.535250006 -6.356019762
O   9.202312453 -7.783284959 -2.888544563
O   10.200164267 -4.371917608 -2.363321982
O   11.255391849 -3.959213619 -5.218150240
O   6.788883134 -5.899162067 -5.991278065
O   7.849384341 -8.045365889 -4.660943361
O   8.870836267 -6.279004497 -1.925226477
O   9.823415400 -3.212345576 -3.414051016
O   10.747527503 -4.252258206 -6.366589160
O   11.730036838 -6.233739428 -5.304076480
O   7.167806188 -7.195948034 -3.494982927
O   8.175380514 -4.501591073 -2.256095584
O   9.242263186 -2.956422746 -5.315795642
O   10.303236225 -5.799505393 -7.078811134
O   11.297350922 -7.314633832 -4.823110307
O   6.751651381 -6.115366194 -3.309985099
O   7.715067684 -3.602559304 -3.353010022
O   8.638603913 -3.829017499 -6.626103185
O   9.601028852 -7.352191688 -6.673927765
O   10.632621900 -7.598029253 -3.388330203
O   11.691386391 -5.174879969 -3.632456752
O   7.228112643 -3.664846047 -4.958752884
O   8.277605724 -5.532316307 -7.201685112
O   9.263908120 -8.285315129 -5.247656051
O   10.193391092 -6.710815001 -2.286657495
O   11.131194096 -4.077510064 -3.451682188
O   6.612002329 -4.830221769 -5.348539396
O   7.573909408 -6.959493454 -6.408464754
O   2.773995563 -5.146665040 -6.151040544
O   3.847237741 -1.980432948 -4.775564135
O   4.881021254 -0.480655122 -7.548727410
O   5.835162852 -2.559337078 -8.438774996
O   1.309648368 -4.518502682 -8.034954820
O   2.242979224 -4.013041675 -5.171177287
O   3.178432557 -0.606343007 -5.619482883
O   4.175736876 -0.778617373 -9.107397405
O   5.230822744 -3.806098150 -9.018170910
O   0.764173633 -3.707795075 -6.909341977
O   1.824519511 -2.300335090 -5.082778490
O   2.846630986 -0.013942686 -7.290399443
O   3.799396740 -2.094513621 -10.005297200
O   4.721962391 -4.875221224 -8.360408186
O   5.693980786 -3.523116375 -6.256954745
O   1.152756870 -1.465000764 -6.195005904
O   2.156685201 -0.755911685 -8.915402960
O   3.222665787 -4.016543674 -9.807651543
O   4.284567308 -5.198204687 -6.633440344
O   5.282121243 -2.583746332 -5.460773358
O   0.717190451 -1.785661618 -7.194990652
O   1.690123159 -1.994817516 -9.482900746
O   2.614973616 -5.073227937 -8.652614301
O   3.577182020 -4.408403477 -5.200655128
O   4.608374739 -1.061098597 -5.611104453
O   5.668612171 -1.585649185 -8.191839118
O   1.202508484 -3.444188008 -9.010321738
O   2.252739081 -5.237212003 -6.900099199
O   3.239701374 -2.804337301 -4.615851578
O   4.168798798 -0.183187374 -6.779933073
O   5.103381144 -1.891910151 -9.278541203
O   0.607721987 -3.219031466 -7.702420413
O   1.556826320 -4.130607563 -5.757958018
O   2.597026507 -1.044177052 -5.307566852
O   3.670152641 -0.331867518 -8.675140792
O   4.705633847 -3.419033955 -9.639642906
O   5.665895366 -4.142869796 -7.279228975
O   1.124733108 -2.977654504 -5.695987764
O   2.061564102 -0.387573117 -6.616121230
O   2.997403260 -1.487815143 -9.811558051
O   3.994318675 -4.893133418 -8.933342280
O   5.049621831 -4.227496275 -5.854465785
O   0.577735226 -2.422259371 -7.070689123
O   1.641148237 -0.707243742 -8.234949475
O   2.664269909 -3.228723796 -10.005933105
O   3.617395728 -5.468872809 -7.426162143
O   4.538681626 -3.253072855 -4.964040290
O   5.503832412 -1.201172227 -6.738783843
O   0.981689332 -1.980687141 -8.658182220
O   1.980645436 -4.600768267 -8.907293785
O  -3.445043500 -0.600233724  8.750039242
O  -2.382528085  2.771928983  9.281990751
O  -1.382447406  3.486473597  6.375824474
O  -0.457610610  1.532511151  6.618883002
O  -4.982610621 -0.583848579  6.722858864
O  -4.056261954  0.762357629  9.489128586
O  -3.094180491  3.987099526  8.149740212
O  -2.063204532  2.903196300  4.893052182
O  -1.001189298  0.261727307  5.843394633
O  -5.472689751  0.249041409  7.891399377
O  -4.420872516  2.458982194  9.246927271
O  -3.432982471  4.190915639  6.459135124
O  -2.504082029  1.521338161  4.307604360
O  -1.572138778 -0.694881936  6.547053104
O  -0.555169437  1.205523082  7.731794955
O  -5.107619972  3.237665549  7.916457708
O  -4.070300369  3.110594572  4.924838136
O  -2.997568124 -0.306728370  4.899688542
O  -1.960811771 -0.658751951  8.180514752
O  -0.996787279  1.963789475  8.578720309
O  -5.550933718  2.914905017  6.892521835
O  -4.609845860  1.719830815  4.625127997
O  -3.673553130 -1.132397940  6.297038296
O  -2.676932558  0.419946236  9.462660257
O  -1.621226773  3.410052285  8.187880895
O  -0.577598766  2.043613391  6.291665890
O  -5.033694232  0.301954468  5.310711147
O  -4.009053903 -0.927056492  8.007586700
O  -3.055345683  2.031895931  9.677010427
O  -2.135069928  4.040881478  6.963480100
O  -1.174982414  1.810474135  5.123342218
O  -5.677371855  0.361611812  6.619618026
O  -4.685542265  0.448748216  9.042739389
O  -3.622423215  3.659889549  8.626797245
O  -2.559576098  3.508563863  5.204026188
O  -1.557630046  0.412168760  5.037930394
O  -0.621951679  0.525277796  7.224378538
O  -5.164572780  1.669449863  8.892341248
O  -4.236574899  4.038955201  7.146313711
O  -3.274584216  2.100227176  4.289367373
O  -2.243724145 -0.911995575  6.023373223
O  -1.179909463  0.536009423  8.600734810
O  -5.659881363  2.424367482  7.773002066
O  -4.604817326  3.422886226  5.606598983
O  -3.615644378  0.419514662  4.474913170
O  -2.686722890 -1.157129992  7.535324550
O  -1.756926908  1.555759076  9.330452889
O  -0.753773150  2.771294109  7.152101999
O  -5.280815335  1.978970687  5.247201281
O  -4.247168328 -0.799056242  5.872839185
O  -3.727679268  0.330488550 -4.690468522
O  -2.689996108  3.666039092 -4.995249509
O  -1.723508369  3.619207580 -7.807045237
O  -6.289426686  1.714253472 -7.922826515
O  -5.342894701 -0.251867518 -6.632678345
O  -4.406136340  1.881697064 -4.227781155
O  -3.409776152  4.663074534 -6.384303830
O  -2.353592251  2.788489566 -9.139112753
O  -1.303996537  0.846445574 -7.511752490
O  -5.771987793  0.730313987 -5.513157541
O  -4.745079920  3.464255451 -4.808881511
O  -3.790514512  4.500392272 -8.007623768
O  -2.870976642  1.396147360 -9.450969061
O  -1.914786765 -0.083726005 -6.793700810
O  -6.393750285  1.919533930 -6.148688125
O  -5.413600195  4.101024643 -6.361767870
O  -4.352515279  3.105793711 -9.340573883
O  -3.289588686 -0.215724363 -8.509706988
O  -2.286273060  0.225242143 -5.349199331
O  -1.346782132  2.613717179 -5.697367480
O  -5.898655889  3.616179258 -7.411630181
O  -4.968911065  1.606016520 -9.342031682
O  -4.007032691 -0.767277018 -6.910914174
O  -2.976255475  1.554490696 -4.287673970
O  -1.910732196  3.930429489 -6.251914338
O  -6.405143925  2.284739573 -7.544900518
O  -5.342192448  0.313870253 -8.409867252
O  -4.351270144 -0.208817761 -5.335446507
O  -3.422080988  3.104811057 -4.407265528
O  -2.494001857  4.359864287 -7.498117646
O  -1.498708320  1.839714742 -8.495843489
O  -6.005522333  0.404284012 -6.979789966
O  -4.976614921  1.414510582 -4.501536896
O  -3.905489979  4.484947993 -5.771211463
O  -2.867166671  3.515459020 -9.013557146
O  -1.899035918  0.622418123 -8.439071843
O  -6.478609345  1.651678203 -6.815975887
O  -5.522757982  2.668004483 -4.913794535
O  -4.585594272  4.556998729 -7.377661348
O  -3.589517841  1.899652501 -9.652334563
O  -2.532857108 -0.478592561 -7.227784081
O  -1.478728700  1.522256932 -5.396492224
O  -5.959446999  3.404083561 -6.098157112
O  -4.929109476  3.648448842 -8.743607017
O  -3.973352953  0.359102921 -9.121441639
O  -3.054278028 -0.436180224 -5.759935834
O  -2.101137935  2.571722271 -4.768936252
O  -1.051777097  2.565228362 -6.993059926
O  -5.588791969  2.033582690 -8.947428889
O  -4.530212894 -0.603715506 -7.467666736
O  -3.467734977 -4.255669591 -4.142031992
O  -2.463426415 -1.171607810 -5.212646715
O  -1.522113903 -1.910306550 -7.717020995
O  -6.079848655 -3.856389021 -7.926677158
O  -5.148358591 -5.358004370 -5.797855191
O  -4.186679660 -2.565480554 -3.991686924
O  -3.156011167 -0.456493319 -6.804003792
O  -2.088927802 -2.909312589 -8.841628380
O  -1.073526140 -3.813001724 -6.804769150
O  -5.528292606 -4.190270044 -4.828067666
O  -4.535002597 -1.183331271 -4.882784726
O  -3.605270010 -0.940560439 -8.298269976
O  -2.678522598 -4.283476123 -8.922846704
O  -1.688598092 -4.897408355 -6.097084693
O  -6.176409377 -2.916649320 -5.375165649
O  -5.153833764 -0.777300724 -6.623796301
O  -4.083915494 -2.584169132 -9.326588005
O  -3.045184642 -5.586406323 -7.721904091
O  -2.075962036 -4.440321935 -4.877602387
O  -1.144246942 -2.575482790 -5.929620988
O  -5.702180006 -1.490994606 -7.661157645
O  -4.764772643 -4.142773595 -9.007123146
O  -3.769062264 -5.818339993 -5.978687356
O  -2.711984099 -2.930347916 -4.102494914
O  -1.654163807 -1.353364727 -6.498011394
O  -6.149845430 -2.759152044 -7.936425208
O  -5.114060573 -5.218256397 -7.841070018
O  -4.156708764 -4.951890177 -4.609611167
O  -3.237818951 -1.483949717 -4.508939868
O  -2.287069437 -1.082114197 -7.754611309
O  -1.254085505 -3.554335618 -7.760513170
O  -5.763964578 -4.984345851 -6.288341388
O  -4.708442701 -3.140606652 -4.067867033
O  -3.645996987 -0.445846313 -6.100247329
O  -2.640980079 -2.130778844 -8.963348641
O  -1.698813594 -4.632576011 -7.747374275
O  -6.259800594 -4.001990216 -5.922084903
O  -5.326798437 -1.901199014 -4.767593875
O  -4.365484955 -0.707688535 -7.776038767
O  -3.335004958 -3.884895884 -9.273167263
O  -2.266544583 -5.459055218 -6.400082246
O  -1.240199890 -3.211917434 -5.497256377
O  -5.715299347 -1.308494264 -6.071093754
O  -4.718798123 -1.869782257 -8.889854765
O  -3.788215178 -5.232224686 -8.449277426
O  -2.862449851 -5.171094115 -5.001335807
O  -1.876425673 -2.129296992 -4.894419449
O  -6.344147622 -2.311280768 -7.019270266
O  -5.330831612 -3.611825853 -8.853786281
O  -4.262383838 -5.851870082 -6.621688997
O  -1.762489241  5.808254619  8.688581896
O  -0.792553706  8.463819270  6.967072084
O   0.139248178  7.138507304  4.987299545
O  -4.419413068  5.139739019  4.774579661
O  -3.482079922  4.318282099  7.472650862
O  -2.486880935  7.570566407  8.492662199
O  -1.429491812  8.844006627  5.258432344
O  -0.368602491  6.089113063  4.066848402
O  -4.884272792  5.433230085  5.977899278
O  -3.838441324  5.654160714  8.203495910
O  -2.879001793  8.690751104  7.345025395
O  -1.960015999  8.089350352  3.928690101
O  -1.011123380  4.744759939  4.181202514
O   0.014310631  5.054540867  6.852746097
O  -4.477495439  7.016988101  7.557798025
O  -3.425707350  8.788073913  5.487882850
O  -2.363760624  6.297907880  3.279841984
O  -1.358244375  3.793887621  5.526519479
O  -0.415766466  5.521998462  7.890261247
O  -4.976863172  6.769476718  6.424341923
O  -4.043486239  7.817128492  4.513218523
O  -3.082805030  4.741892883  3.936829991
O  -2.052645170  3.920137811  7.333134960
O  -0.983014179  7.111009832  8.340121893
O   0.050318262  7.793753536  5.823746408
O  -4.442946855  6.493702467  4.330230718
O  -3.442018659  3.953343397  5.290673539
O  -2.510243471  5.036555856  8.452191719
O  -1.585139941  8.431707574  7.689287329
O  -0.602021636  7.948947098  4.555751988
O  -5.037245479  6.257808621  6.029461978
O  -4.047020948  4.415111332  6.915155980
O  -2.980302835  6.941294907  8.632431849
O  -1.941257107  9.075165460  5.985127927
O  -0.970866294  6.814093638  3.656946893
O  -0.039917734  4.877223236  5.380348234
O  -4.596313544  5.495132799  7.270451951
O  -3.659645120  8.111821860  7.635268007
O  -2.665173831  8.459230777  4.313712914
O  -1.607620726  5.018772169  3.711862955
O  -0.544173378  4.323787400  6.748155316
O   0.435176813  6.427839969  6.487649466
O  -4.024522500  8.467270898  6.230244190
O  -3.062384588  7.103015362  3.503384866
O  -2.143017948  3.892937783  4.774767705
O  -1.195539377  4.825447637  8.064573465
O  -0.174777797  7.592914719  7.294457696
O  -4.651400789  7.465071296  5.186435224
O  -3.604248783  5.314564435  3.844438054
O  -2.542926933  3.669943066  6.664850266
O  -6.306993774  6.306157482  6.936457616
O  -5.364519996  8.392383960  4.707840830
O  -4.420442160  6.623376396  3.551569272
O  -8.990085886  4.588784617  3.251083077
O  -8.030442079  4.592319167  6.252012112
O  -7.000786404  8.051456878  6.373018777
O  -5.930208536  8.416796572  2.993109916
O  -4.891706206  5.663180142  2.677250962
O  -9.403778427  4.828500140  4.462915249
O  -8.396483430  6.045886607  6.680422102
O  -7.463132901  8.875867211  5.030835263
O  -6.538396377  7.435494715  1.846223823
O  -5.557459436  4.355179242  2.958927262
O  -4.503043534  5.560248339  5.068535073
O  -8.994272550  7.439038149  5.839938336
O  -7.929536504  8.614068412  3.160062449
O  -6.890486318  5.616572933  1.606842642
O  -5.919805769  3.742498162  4.334641926
O  -4.990032103  5.899364882  6.077281628
O  -9.541233511  7.346492351  4.741572479
O  -8.606397691  7.380114143  2.304589430
O  -7.612954676  4.140338577  2.606662579
O  -6.555421370  4.242289641  6.099809461
O  -5.489859072  7.449643799  6.214360262
O  -4.494252457  7.215261344  3.920005374
O  -8.981444943  6.014658112  2.329548134
O  -8.015827076  3.680197629  4.085243596
O  -7.095790244  5.552242120  6.948158509
O  -6.149353232  8.630102952  5.351266931
O  -5.131724015  7.324814245  2.620667767
O  -9.594234156  5.429808347  3.609450780
O  -8.553136734  4.424110977  5.694785917
O  -7.492522615  7.433813566  6.735523070
O  -6.486378077  8.878022239  3.653778848
O  -5.544083479  6.202697909  1.976774598
O  -4.604952224  5.012960072  4.026684323
O  -9.165552116  5.665499970  5.951600426
O  -8.207557560  8.471209649  5.445273033
O  -7.178645716  7.905652572  2.079639369
O  -6.107358738  4.482579601  2.395643759
O  -5.064840232  4.641596761  5.305504874
O  -9.598890079  6.604900916  5.277644923
O  -8.581386985  8.529386358  3.991237618
O  -7.646026809  6.419527365  1.596805188
O  -6.721385720  3.592474552  3.651579697
O  -5.742080132  5.332026194  6.525868346
O  -4.693332924  7.490022195  4.995759164
O  -9.171835146  7.386281385  2.932741431
O  -8.109322070  4.691013299  2.274906870
O  -7.070300869  3.773325727  5.482666180
O  -3.754267512  10.031029535  3.698768207
O  -2.825760974  11.436653581  1.131601894
O  -7.367224038  9.584751578  0.481990646
O  -6.437210021  7.372704968  0.552324931
O  -5.445201943  8.262948260  3.573750986
O  -4.387907437  11.651808807  2.774619473
O  -3.320627413  11.135358033 -0.471174781
O  -2.316368570  8.684241018  0.028876011
O  -6.824419513  7.756662310  1.765624447
O  -5.854267290  9.769588035  3.666959381
O  -4.933265470  12.167636140  1.295842348
O  -3.987555315  9.962174200 -1.420616522
O  -2.972089259  7.414542771  0.440789793
O  -7.418841604  9.248871150  1.646071728
O  -6.387425478  11.101244396  2.583605080
O  -5.327546870  11.536928246 -0.471273672
O  -4.321155993  8.231508302 -1.270469249
O  -3.379119084  7.077307330  1.761108416
O  -2.443909421  9.469485382  2.757583403
O  -6.994293332  10.948676260  1.378173997
O  -6.038905846  10.053387161 -1.144396351
O  -5.011039451  6.927176439  0.055287794
O  -3.939293323  7.926394648  3.368510705
O  -2.893597130  10.879734084  2.663508718
O  -1.953319789  9.529467397  1.130110564
O  -6.421540676  8.699521960 -0.848366990
O  -5.483669072  6.810121278  1.593853514
O  -4.558874027  9.381772522  3.936882823
O  -3.580773433  11.901418630  1.615769208
O  -2.534950883  9.945199740 -0.429577609
O  -7.004581049  8.065896536  0.494439447
O  -5.944508969  7.851845164  3.081581396
O  -4.905491499  11.122052792  3.346040702
O  -3.934440243  11.800486048  0.024147189
O  -3.007178278  8.892211278 -0.918932464
O  -2.035825057  8.743309579  1.175259741
O  -6.612193335  9.260726816  3.170088198
O  -5.622169555  11.952232364  1.786571409
O  -4.565368253  10.500899646 -1.347881857
O  -3.496734359  7.361173626 -0.186836224
O  -2.486587024  8.262423995  2.333877921
O  -7.014165726  10.206212789  2.473483906
O  -6.037922143  11.686902317  0.348225261
O  -5.115653743  8.943254984 -1.498393947
O  -4.170405796  6.719629169  1.223409832
O  -3.156443833  9.110258319  3.442131695
O  -2.094566680  10.278787567  1.384289920
O  -6.567474988  10.352467937 -0.623865156
O  -5.508283688  7.388565209 -0.493352077
O  -4.501614576  7.264972619  2.887317647
O  -6.634614872  8.272347418  0.144779070
O  -5.702708660  8.913141905 -2.559853875
O  -10.240661746  7.057471905 -3.343173803
O  -9.289524407  4.857450013 -2.207481563
O  -8.263077832  6.604550852  0.553747288
O  -7.191133806  9.658026654 -1.092307876
O  -6.142916240  8.374500383 -3.957501255
O  -5.178550010  6.535019283 -2.755511055
O  -9.682077276  5.465557762 -1.050230063
O  -8.741097163  8.100419095  0.305425933
O  -7.815920996  9.861865272 -2.657819340
O  -6.838693296  7.043051492 -4.689409580
O  -5.794498295  5.261897958 -2.292056107
O  -10.257725272  6.879677755 -0.924612153
O  -9.200257529  9.264953484 -1.023286677
O  -8.161148843  8.896828035 -4.210513985
O  -7.189894679  5.488817277 -4.210786151
O  -6.263786799  5.107913801 -1.066860272
O  -5.303699312  7.471955812 -0.935867526
O  -9.860761512  8.955267794 -2.348014704
O  -8.873479222  7.200021240 -4.632817805
O  -7.817462873  4.453410742 -2.609508447
O  -6.747813175  6.234444090  0.278301105
O  -5.733357077  8.708283896 -1.096622190
O  -10.281458389  8.011133289 -2.894855252
O  -9.296380266  5.922166842 -4.042577710
O  -8.372534986  4.676464935 -1.068637351
O  -7.427530189  7.792186714  0.557637479
O  -6.414607524  9.548090715 -2.292809620
O  -5.354787156  7.224103294 -3.407243129
O  -9.823063805  5.369437979 -2.566536459
O  -8.764396792  5.988657965  0.189903741
O  -7.757356238  9.293856026 -0.354874992
O  -6.815796735  9.175333634 -3.718400688
O  -5.886709562  6.240661709 -3.878831062
O  -10.408033898  6.359087556 -1.868696781
O  -9.464650461  7.538848542  0.047938523
O  -8.440088379  9.838717814 -2.132040696
O  -7.368218756  7.618248517 -4.788916459
O  -6.318017148  4.979950741 -2.933828392
O  -5.344587625  6.450063120 -1.029928163
O  -9.868396737  8.411663238 -0.805185882
O  -8.923563915  9.250389098 -3.492771710
O  -7.997802881  6.039915791 -4.610324729
O  -7.021192441  4.605070883 -1.410280446
O  -5.977885106  7.401930981 -0.032043753
O  -10.436853301  7.901861016 -2.129937496
O  -9.381969679  7.730972270 -4.273213936
O  -8.342586923  4.759241833 -3.330048206
O  -7.371043732  5.441667440  0.011421351
O  -4.564063217 -1.193761358  8.618124659
O  -3.610903838 -1.367875731  6.026324560
O  -8.151139375 -3.271996695  5.260759306
O  -7.167691235 -5.117455248  7.248271816
O  -6.112792943 -2.632070286  9.499048691
O  -5.042444525 -0.133115769  7.159501922
O  -4.024741060 -2.005038866  4.863359689
O  -8.600388491 -3.157552145  6.415414732
O  -7.598173979 -4.259862397  8.283517775
O  -6.672430001 -1.202847731  8.919466990
O  -5.727492892 -0.244610765  5.554198235
O  -4.715279257 -3.449536780  4.372777572
O  -3.655702028 -4.301458865  7.002099998
O  -8.123005665 -2.769228780  8.381068304
O  -7.064504607 -0.304507628  7.386614554
O  -6.056931161 -1.473147618  4.299735962
O  -5.115485035 -4.780667837  5.097497594
O  -4.188799226 -4.373764554  8.144219567
O  -3.178564683 -2.530950777  7.146765864
O  -7.757072782 -0.839171248  5.973128565
O  -6.734979175 -3.318252370  4.194555274
O  -5.663467618 -5.463707563  6.885633319
O  -4.611734455 -3.082532433  9.162195243
O  -3.632722325 -1.258694447  7.317498968
O  -8.173586228 -1.847017678  5.462550329
O  -7.223898794 -4.460349990  5.073725419
O  -6.297375200 -4.910871148  8.378087151
O  -5.321191968 -1.470687245  9.139775793
O  -4.278319295 -0.612807476  6.028603141
O  -3.225893483 -2.899047083  6.108130696
O  -7.682665527 -4.821400983  6.673111193
O  -6.642707050 -3.393672626  9.320033592
O  -5.670733648 -0.267850678  7.988373583
O  -4.746493729 -1.173691995  4.784392507
O  -3.798482362 -3.894392162  5.409327045
O  -8.321243563 -3.828361602  7.464765218
O  -7.343350425 -1.756535707  8.893379029
O  -6.289951422 -0.076996933  6.077790817
O  -5.219203473 -2.880513470  4.086304023
O  -4.199028070 -4.866298421  6.434470204
O  -3.258993129 -3.037567746  7.475268582
O  -7.781827577 -1.030752599  7.847440429
O  -6.853847215 -0.971636349  4.847864564
O  -5.908846098 -4.429868868  4.589997953
O  -4.897111979 -4.955587528  8.016297480
O  -3.837093985 -2.065628589  8.459112269
O  -8.306322058 -1.403469564  6.486532251
O  -7.247232927 -2.624603384  4.349842585
O  -6.238885053 -5.368047734  6.063726271
O  -5.297408680 -3.913719154  9.163059072
O  -7.979164733  2.209861579  6.371232584
O  -6.988996752  1.215064972  4.226279949
O  -11.536846433 -0.687401084  3.456284966
O  -10.517974991 -1.926685289  6.091794231
O  -9.447117409  1.106641918  7.640530447
O  -8.394240308  2.900662798  4.814036646
O  -7.411432883  0.654965666  3.210575567
O  -11.968341750 -0.760046116  4.505814836
O  -11.012241323 -0.827031649  6.946477822
O  -10.084808198  2.419848100  6.747233968
O  -9.108921369  2.469430975  3.223111791
O  -8.066203811 -0.837796534  2.973807132
O  -7.010337598 -0.684097440  5.456623292
O  -11.472745522  0.732583348  6.880949312
O  -10.431735306  2.978394970  5.085822028
O  -9.459132738  1.066761142  2.311244097
O  -8.535547536 -1.940990860  3.864079728
O  -7.591576454 -0.783977837  6.583212022
O  -12.094056241  1.057504641  5.650048282
O  -11.124962698  2.169945429  3.644025880
O  -10.073503258 -0.831419820  2.573450715
O  -9.002638985 -2.223198849  5.719336528
O  -7.980586045  0.540776775  7.271414393
O  -7.032726132  1.582194803  5.189620866
O  -11.571838513  1.032965825  3.275464651
O  -10.641260928 -1.787709425  3.719664366
O  -9.696110268 -1.353070513  7.112661610
O  -8.684706744  2.143270474  6.937750662
O  -7.623944538  2.069423021  3.879468865
O  -12.098748999 -0.019640271  4.136776532
O  -11.037202588 -1.872117507  5.384154452
O  -10.027739187  0.279947258  7.685761492
O  -9.086047574  3.028664950  5.635037297
O  -8.163058911  1.390130793  2.794724007
O  -7.182245057 -0.835312272  4.139478369
O  -11.709002684 -0.729773946  6.207709173
O  -10.694372266  1.922323364  6.935698366
O  -9.624478350  2.824081197  3.704461706
O  -8.570792302 -0.337053755  2.490947755
O  -7.585304296 -1.588167763  5.109881040
O  -12.159800467  0.217404287  5.708012948
O  -11.193791965  2.440463877  5.703292095
O  -10.265341034  1.647579297  2.652128463
O  -9.289676042 -1.799600343  3.313611903
O  -8.246951139 -1.387425233  6.676076595
O  -7.187994904  1.245704915  6.197990562
O  -11.657802597  1.969912658  4.307693168
O  -10.614979873 -0.056783290  2.496628525
O  -9.641485509 -2.367154835  4.887926910
O  -8.718338070 -0.217498035  7.553060424
O  -3.897843853 -4.950215379  4.817648657
O  -8.368924770 -6.770101413  3.731524946
O  -7.419895879 -8.510101116  2.602847100
O  -6.370893064 -8.974435082  5.643658502
O  -5.300180741 -5.626994826  6.376060668
O  -4.276718426 -4.612929512  3.290781656
O  -3.324741092 -7.000433324  2.449760173
O  -7.875588440 -8.494197843  3.717963153
O  -6.942015755 -7.658318488  6.270608671
O  -5.996681259 -4.479582298  5.190560875
O  -4.985527742 -5.360544856  1.783300680
O  -3.923901231 -8.464108719  2.442774885
O  -2.898060809 -7.191150939  4.244742619
O  -7.341949854 -6.092657867  5.956320486
O  -6.330897784 -4.296934166  3.493688033
O  -5.388764871 -6.850301477  1.218682097
O  -4.467118301 -9.364434961  3.437420316
O  -3.492621901 -7.568626104  5.583264421
O  -7.999750604 -5.699685987  4.653747836
O  -6.990852860 -5.404797452  2.109030734
O  -5.922248513 -8.683432300  1.866285246
O  -4.868043462 -9.248355956  5.228742836
O  -3.880637085 -6.326711947  6.012475374
O  -2.951691969 -6.255066331  3.980688944
O  -7.495119038 -6.669508167  1.953136986
O  -6.565594556 -9.410722298  3.248921416
O  -5.590132895 -8.078938550  6.464283787
O  -4.547324204 -4.813713904  5.376733689
O  -3.485594741 -5.739476798  2.690993331
O  -7.965087100 -7.772926860  2.780330868
O  -6.919148769 -9.170074329  4.892759761
O  -5.944426080 -6.423435428  6.656305628
O  -5.021479627 -4.231043174  3.996044601
O  -4.083342599 -6.491019848  1.720661413
O  -3.060702533 -7.868463911  3.626456359
O  -7.594017123 -7.822970168  5.669845572
O  -6.548094872 -4.879522110  5.571498115
O  -5.477788146 -4.829627197  2.173354054
O  -4.453289687 -8.114800916  1.774562449
O  -3.498860725 -8.606472842  4.438727573
O  -8.059007701 -6.859216008  5.258598850
O  -7.121971686 -4.614717396  4.180354025
O  -6.176479139 -6.257584217  1.345412174
O  -5.165556170 -9.419583470  2.897896056
O  -4.103051409 -8.145963435  5.906187243
O  -3.065657427 -6.141234660  4.621575630
O  -7.527600757 -5.284646333  2.819696381
O  -6.514297785 -7.919471804  1.553448810
O  -5.571454724 -9.625235678  4.488410227
O  -4.650833784 -6.902791804  6.541556051
O  -8.049998736 -2.554770982  3.743351465
O  -12.536590856 -4.180197775  2.408153107
O  -11.535965475 -6.524815503  2.406599599
O  -10.468996533 -6.135379258  5.586430699
O  -9.414521885 -2.718840778  5.469462590
O  -8.425743579 -2.492392895  2.349173648
O  -7.492209524 -4.765740592  2.314303315
O  -12.044627274 -6.318501361  3.595309522
O  -11.114051506 -4.638536223  5.946622148
O  -10.138833346 -1.793600890  4.022004734
O  -9.095932213 -3.530362932  1.007122913
O  -8.031736988 -6.144029140  2.442883939
O  -12.524548666 -5.201674736  4.259191195
O  -11.472837979 -3.154467226  5.343279546
O  -10.496459824 -1.984209529  2.380697025
O  -9.573458776 -5.038523939  0.765977979
O  -8.637394008 -6.879565517  3.505755132
O  -7.625427095 -4.653690713  4.828839663
O  -12.136461813 -2.806589499  3.885918245
O  -11.094406063 -3.384917493  1.155180603
O  -10.024743522 -6.682822729  1.772904738
O  -8.999506072 -6.422032584  5.118233366
O  -8.043574986 -3.559361825  5.145568008
O  -12.611456713 -3.635466579  3.239805299
O  -11.670290720 -4.748799313  1.259489023
O  -10.724740688 -7.139156513  3.353413156
O  -9.714086318 -4.987327878  6.127291270
O  -8.650758841 -2.220270233  4.252129902
O  -7.606710000 -3.812543405  2.231499753
O  -12.083717776 -5.807068229  2.215169211
O  -11.067203200 -6.565544372  4.884421699
O  -10.123334342 -3.389073138  5.959336980
O  -9.203434268 -1.908845871  2.843092006
O  -8.237124769 -4.609550971  1.313656277
O  -12.697881380 -5.024693568  3.416587893
O  -11.711942438 -5.005824591  5.524457246
O  -10.646980472 -2.056093079  4.566567121
O  -9.592447329 -2.850995881  1.247484574
O  -8.602696690 -6.041761391  1.636517620
O  -7.667641794 -5.789946791  4.116346665
O  -12.224346865 -4.005428690  4.982239318
O  -11.292871808 -2.079616307  3.056337565
O  -10.318001887 -4.488504352  0.694992656
O  -9.275056472 -7.109982149  3.016391233
O  -8.208695937 -5.151169234  5.421507769
O  -12.726850471 -4.139668975  3.572763311
O  -11.658360092 -2.987067917  1.820952725
O  -10.679781204 -6.021526119  1.250700546
O  -9.756451212 -6.985923621  4.559970248
O  -8.822008172 -3.865882283  5.848943298
O  -9.632216867  0.925614533  0.436201790
O  -14.124674734 -0.695810921 -0.898434290
O  -13.087547591 -3.132789917  0.040751394
O  -12.018751458 -1.899229664  3.097483244
O  -10.993007674  1.357743414  2.169283033
O  -10.036170141  0.840771176 -0.780179418
O  -9.100912968 -0.926368891  0.128081230
O  -13.664524860 -2.679718809  1.273797310
O  -12.719117482 -0.267086111  3.155244193
O  -11.708826606  1.998511125  0.509007814
O  -10.644781892 -0.425907329 -1.876781962
O  -9.595753089 -2.319331503  0.109263973
O  -14.088533394 -1.533130945  1.942176961
O  -13.067306359  1.046296204  2.265206021
O  -12.122042247  1.466736487 -1.003393680
O  -11.202567946 -1.907537739 -1.829542699
O  -10.238985320 -2.930474061  1.223124271
O  -9.189088713 -0.616453930  1.436849376
O  -13.703508208  1.249122301  0.647154999
O  -12.640959919 -0.181058062 -1.966336273
O  -11.586541398 -3.256788576 -0.534620811
O  -10.596109610 -2.230176920  2.584403298
O  -9.660654511  0.365903075  1.909123069
O  -14.218668443  0.421483892 -0.048280544
O  -13.286699358 -1.601552129 -1.569714754
O  -12.312357314 -3.399118227  1.191638987
O  -11.269466106 -0.591859348  3.296420318
O  -10.201235089  1.469098795  0.845740759
O  -9.193048182 -0.523672306 -0.231173467
O  -13.660575109 -2.514932658 -0.439279294
O  -12.679084801 -2.519460047  2.529741432
O  -11.755131866  0.892477105  2.808266523
O  -10.821917659  1.540938905 -0.562968118
O  -9.820860733 -1.344771306 -1.214175716
O  -14.295750888 -1.925782911  0.827303124
O  -13.265181744 -0.781301948  2.940266485
O  -12.197455359  1.912983949  1.175850944
O  -11.171380283  0.346993190 -1.845491171
O  -10.214023412 -2.556441488 -0.742315866
O  -9.279947360 -1.601076780  1.286356530
O  -13.842111383  0.221882049  2.186116302
O  -12.897190438  1.572554849 -0.402740879
O  -11.887416933 -1.437536196 -2.070392734
O  -10.822799256 -3.318240420  0.815091974
O  -9.769812141 -0.926627387  2.442699492
O  -14.280914293  0.412510241  0.967807830
O  -13.252247666  0.436591798 -1.426571808
O  -12.305153635 -2.776105529 -1.208365005
O  -11.385818327 -2.903405545  2.271489143
O  -10.424335479  0.384207529  2.690960414
O  -5.778972556 -6.116763850 -0.779874750
O  -10.273402921 -7.697943719 -2.101073984
O  -9.213726493 -9.903907528 -0.320555684
O  -8.159556148 -7.910999738  2.381186018
O  -7.168648769 -5.009551461  0.732902341
O  -6.233337400 -6.186860409 -1.857798835
O  -10.789587689 -7.949560081 -1.053466247
O  -9.858184208 -9.172216014  0.911566452
O  -8.884641633 -6.203778348  2.103560945
O  -7.841950092 -4.710989196 -1.063070379
O  -6.772139049 -7.582963071 -2.656257971
O  -5.754009938 -8.594948391 -0.412759332
O  -10.242460299 -7.919251780  1.448997474
O  -9.257094599 -5.134026076  0.962254020
O  -8.332203157 -5.537607406 -2.397202573
O  -7.399871068 -9.010758775 -2.352383837
O  -6.401996070 -9.134017711  0.744448119
O  -10.857881511 -7.011951899  0.359630330
O  -9.837211856 -5.165267114 -0.773401272
O  -8.770735241 -7.348459100 -3.012296715
O  -7.744449822 -9.997976073 -0.873955500
O  -6.786822526 -8.306626849  1.841251753
O  -5.854755490 -6.191359109  0.554389588
O  -10.412625997 -6.146716119 -1.456737465
O  -9.468764549 -8.771127692 -2.301873341
O  -8.459726582 -9.787379948  0.924857537
O  -7.394712433 -6.558953265  2.201688311
O  -6.338512909 -5.325287288 -0.555527428
O  -10.875604052 -7.284604462 -0.995911210
O  -9.831919120 -9.453107407 -1.008004304
O  -8.882476792 -8.650311192  2.013090637
O  -7.963001127 -5.223752131  1.436178280
O  -7.003117549 -5.469369411 -1.944738666
O  -5.969003820 -8.215787296 -1.666061228
O  -10.449016051 -8.798134654  0.343605665
O  -9.392752991 -6.806788950  2.115249640
O  -8.338921002 -4.585717176 -0.333829386
O  -7.347671848 -6.802456262 -2.878586152
O  -6.412782881 -9.249882388 -1.169616245
O  -10.959000726 -7.459890746 -0.307825048
O  -10.034617859 -5.850687584  1.112550617
O  -9.062266627 -5.264635521 -1.914988512
O  -8.019966281 -8.644781525 -2.734725769
O  -6.948862403 -9.668130154  0.454744616
O  -5.924100186 -7.139504863  1.219348900
O  -10.431855031 -5.722703997 -0.145729289
O  -9.441211603 -6.587896773 -2.661151920
O  -8.515041294 -9.747516184 -1.618009022
O  -7.583283644 -8.996091520  1.797970089
O  -6.587732736 -5.815815185  1.316650962
O  -7.828840419 -3.370468308 -3.551574761
O  -12.321494813 -4.721552209 -5.039068471
O  -11.256416866 -6.447711410 -2.568059006
O  -10.229988729 -3.834168799 -0.406406386
O  -9.272239939 -1.447487489 -2.648271862
O  -8.342266362 -3.164993683 -4.700955105
O  -12.893380458 -5.004881643 -3.928345689
O  -11.951573293 -5.422040780 -1.393875520
O  -10.943562795 -2.132325698 -1.042998638
O  -9.878357060 -1.526231091 -4.474146401
O  -8.819540926 -4.568477334 -5.204862375
O  -7.844962548 -4.549754113 -3.055467804
O  -12.324184365 -4.071223641 -1.082802382
O  -11.371760512 -1.354280280 -2.381756643
O  -10.451872060 -2.601117308 -5.600373390
O  -9.493181133 -5.920072473 -4.667658726
O  -8.462380807 -5.155360529 -1.838325540
O  -12.930471737 -3.053613859 -2.100249300
O  -11.878321616 -1.686193348 -4.153756875
O  -10.824867969 -4.464275457 -5.818664207
O  -9.833347407 -6.529614935 -3.120758503
O  -8.899009957 -4.304704817 -0.957806367
O  -7.949103461 -2.938425486 -2.717574732
O  -12.516036550 -2.872490943 -4.762844465
O  -11.545438002 -5.820365918 -4.784590643
O  -10.503767820 -5.944097546 -1.346497242
O  -9.431655962 -2.566450784 -0.965857474
O  -8.401991234 -2.185885056 -3.740276731
O  -12.929884426 -4.000301716 -4.462758499
O  -11.931640026 -6.209840391 -3.371660102
O  -11.003820568 -4.605162043 -0.541122035
O  -10.072364369 -1.404413200 -1.972061800
O  -9.078515916 -2.525366117 -5.089128347
O  -8.021572744 -4.745799942 -3.928990181
O  -12.500124273 -5.377712894 -1.993450643
O  -11.436548394 -2.758740397 -0.796043757
O  -10.409989973 -1.173111179 -3.762271214
O  -9.452190876 -3.890913007 -5.692568310
O  -8.524223208 -5.731610464 -3.520012823
O  -13.065323793 -4.259370778 -2.192166119
O  -12.127547819 -1.909329738 -2.058543993
O  -11.120946089 -2.197719740 -5.262041158
O  -10.055780086 -5.678492070 -5.167070457
O  -8.994848837 -5.824171294 -1.951554485
O  -8.007851952 -3.475048751 -2.060878936
O  -12.511178046 -1.972830113 -3.357063193
O  -11.554968446 -3.651341264 -5.690886551
O  -10.634401529 -6.521965553 -3.845518763
O  -9.676570942 -4.921289868 -0.746117906
O  -8.647914334 -2.142783558 -2.061143613
O  -11.504835279  0.825854533 -6.247541150
O  -10.457907111 -1.134402611 -7.327706631
O  -9.404810165 -2.204165178 -4.360906793
O  -8.413029512  0.859112127 -2.872883807
O  -7.479276649  2.604805342 -5.556421237
O  -6.535496100  0.518610310 -6.886289100
O  -11.089554526 -1.346249292 -6.065135706
O  -10.121531941 -0.885827186 -3.314069059
O  -9.080782175  2.455308651 -3.869934832
O  -8.007945639  2.155001067 -7.289926721
O  -6.974514267 -0.780786388 -7.183234835
O  -11.526844923 -0.576837602 -5.248190284
O  -10.515767468  0.517395300 -3.289556126
O  -9.585890559  2.917115370 -5.348167043
O  -8.654495183  0.872320034 -8.187281551
O  -7.661885421 -2.028372172 -6.434364839
O  -6.607934759 -0.500867515 -4.199441782
O  -11.078834608  1.554728665 -4.421296095
O  -10.016789824  2.253326224 -7.050917176
O  -8.990053497 -0.925891779 -8.006120794
O  -8.032210952 -2.293709554 -4.918837155
O  -7.106090852  0.303696985 -3.432045886
O  -11.629761991  0.686693168 -5.393503079
O  -10.702194011  0.851836423 -7.521060810
O  -9.697497338 -2.131680300 -6.657494381
O  -8.632628271 -1.343916243 -3.283040574
O  -7.570018146  1.911575433 -3.771559042
O  -6.575693257  1.496889620 -6.281607814
O  -11.098749057 -0.280237604 -7.104996874
O  -10.137665312 -2.196101224 -5.183766278
O  -9.216161201  0.144482414 -2.777167070
O  -8.258920911  2.875453827 -4.986802058
O  -7.231666726  0.996284996 -7.568704260
O  -6.169018417 -0.025800503 -5.565586670
O  -10.638622472 -1.133224217 -3.871512611
O  -9.585779708  1.879259780 -3.396219820
O  -8.593692563  2.723577177 -6.688102997
O  -7.660489422 -0.325032287 -7.902515377
O  -6.721356503 -1.423089005 -5.454424645
O  -11.261693475  0.081225407 -4.085186915
O  -10.297529730  2.553428080 -4.907471144
O  -9.258048903  1.372283413 -8.007851048
O  -8.184770102 -1.937576457 -7.025945858
O  -7.148402850 -1.275334835 -4.043435965
O  -6.204248941  0.500086082 -5.058392147
O  -10.700606072  2.230850166 -6.200251044
O  -9.768212167 -0.152740930 -8.102934946
O  -8.836668656 -2.505203474 -5.543987477
O  -7.844948672 -0.169523422 -3.007543933
O  -6.792341486  1.929650730 -4.978866845
O  -2.564626592 -2.489044611  6.590852356
O  -1.504000729 -5.007398386  6.309495100
O  -0.476970030 -5.315168860  9.554388630
O   0.480965414 -1.989625762  10.283008896
O   1.405432946 -0.981332353  7.335256680
O   2.383512466 -3.171250026  6.965150052
O  -2.182158332 -5.069769726  7.737894418
O  -1.180021597 -3.728428664  10.393711715
O  -0.115733297 -0.608875632  8.959439988
O   0.948168045 -1.744089714  5.808638687
O   1.947527503 -4.325428208  6.648571306
O  -2.594204761 -4.346186727  8.582925158
O  -1.626599849 -2.331209306  10.103819361
O  -0.703907443 -0.472775335  7.395726576
O   0.252957600 -3.196479323  5.163165425
O   1.279305019 -5.437149012  7.574318675
O   2.339141094 -3.388539766  8.880254690
O  -2.126005962 -1.378963626  8.796522108
O  -1.073200129 -1.456908606  5.872834122
O  -0.080700851 -4.828688431  5.702596303
O   0.852039398 -5.425162143  8.993650674
O   1.787412867 -2.655476230  9.706940536
O  -2.736820629 -2.030699043  7.773452338
O  -1.778784852 -3.054832305  5.609255490
O  -0.740991264 -5.791658405  7.327549033
O   0.332447690 -4.165440825  10.378306653
O   1.371104536 -1.268923680  9.129841626
O   2.328870718 -2.366675613  7.161169274
O  -2.191572004 -4.140403083  6.234946887
O  -1.256127351 -5.521798622  8.803400458
O  -0.324259298 -2.575543558  10.573800961
O   0.666830276 -0.535140055  7.742382588
O   1.718909035 -2.954774788  5.925443440
O  -2.745747878 -4.209800033  7.628823225
O  -1.686087224 -4.223644686  9.944796137
O  -0.658562211 -1.057626556  9.626666000
O   0.299567520 -1.010072852  6.210126627
O   1.222599579 -4.198475766  5.778645409
O   2.190286105 -4.434463641  8.243599856
O  -2.355032316 -2.889275280  9.599393497
O  -1.356348626 -0.632788980  7.904110268
O  -0.292953647 -2.632475199  5.170934079
O   0.771889674 -5.532938362  6.927445249
O   1.774902017 -4.201899996  9.462043098
O  -2.786830999 -2.481829700  8.624224266
O  -1.809544308 -1.241460209  6.675669210
O  -0.885421550 -4.174422506  5.411799402
O   0.071232240 -5.806196129  8.525186433
O   1.097008952 -2.936376720  10.292782821
O   2.157484693 -1.744258131  7.948461924
O  -2.357461000 -7.388301687  4.326769007
O  -1.304295551 -10.109315185  4.877150623
O  -0.311214631 -9.613139140  8.178127685
O   0.621192056 -6.222574754  8.103818010
O   1.553463164 -6.013302078  5.101478622
O  -2.948791185 -8.028753807  5.457271929
O  -2.002423323 -9.953122756  6.447061110
O  -0.966823719 -7.813080634  8.727330661
O   0.106493028 -5.157060375  6.529767138
O   1.146917532 -6.983479775  3.858623260
O   2.111425756 -8.997882642  5.272471092
O  -2.425911856 -9.093243720  7.236429313
O  -1.486764371 -6.479413197  8.119582522
O  -0.554430570 -5.350697166  4.931160396
O   0.436213821 -8.559066257  3.493207398
O   1.488216334 -9.958974370  6.313489390
O  -2.978655207 -7.796130290  6.546254557
O  -1.917918058 -5.718257626  6.638834185
O  -0.889591065 -6.603657461  3.682804472
O   0.068884696 -9.957683189  4.320330509
O   0.990713416 -9.747396928  7.614216477
O   1.951588995 -7.058370548  7.496295949
O  -2.575174313 -6.442559127  5.524176543
O  -1.581237956 -8.349901094  3.692455174
O  -0.519081355 -10.591005398  6.147297256
O   0.546386752 -8.275160710  8.660927855
O   1.552108951 -5.919236169  6.819173616
O   2.476020285 -7.642081629  5.868307104
O  -2.041198084 -9.327527096  4.560246795
O  -1.115414688 -9.991687349  7.571414694
O  -0.158857928 -6.634117257  8.534339692
O   0.866570461 -5.448667900  5.313937557
O   1.928303363 -8.106060208  4.413754268
O  -2.541426332 -9.401874880  6.007281087
O  -1.487185070 -8.497885091  8.445718703
O  -0.493280552 -5.410135093  7.328219718
O   0.438958803 -6.170291855  3.991489560
O   1.368662862 -9.282736160  4.368851323
O   2.381545877 -8.513320582  6.443866522
O  -2.176422599 -7.072330766  7.890912581
O  -1.143643364 -5.304525382  5.463130543
O  -0.070731983 -7.969488051  3.315250798
O   0.971029169 -10.280077581  5.673221316
O   1.939735540 -8.463937103  7.595936806
O  -2.611846828 -6.660823964  6.889089418
O  -1.668126212 -6.199033456  4.355390174
O  -0.735225635 -9.476433936  3.888457342
O   0.255093967 -10.238228482  7.331283995
O   1.307273882 -7.106199818  8.200342893
O   2.354055567 -7.013643332  5.866948789
O  -3.071523945 -9.863117129 -0.460365333
O  -2.041937905 -12.502004724  0.900517803
O  -1.082913110 -11.213596646  4.042509028
O  -0.162044235 -7.964357418  3.163560338
O   0.793776928 -8.564526191  0.354124018
O  -3.713648685 -10.626449796  0.588125792
O  -2.726558241 -12.067751681  2.555691895
O  -1.666023719 -9.289414015  4.231880912
O  -0.600219930 -7.280630199  1.451435684
O   0.407524056 -9.609875193 -0.592333425
O   1.344878611 -10.844682603  1.199720836
O  -3.193364667 -11.022197146  3.215741189
O  -2.265707402 -8.071604286  3.317418188
O  -1.309184384 -7.806973199 -0.127545972
O  -0.283969127 -11.243191997 -0.652515929
O   0.779201713 -11.715650493  2.265769891
O  -3.697231774 -9.718973876  2.809175679
O  -2.640496186 -7.590692960  1.711544423
O  -1.645439380 -9.250259788 -1.038791122
O  -0.713167296 -12.379847391  0.383212722
O   0.214429966 -11.373461586  3.462368420
O   1.212910127 -9.090550863  2.514283194
O  -3.319195749 -8.492659975  0.541957353
O  -2.290038338 -11.065960823 -0.700279773
O  -1.217816883 -12.621936484  2.304008624
O  -0.175079029 -9.813827192  4.133088960
O   0.796427008 -8.121409432  1.896470199
O  -3.768382463 -9.521126019  0.598368935
O  -2.818694568 -11.879118382  0.408429283
O  -1.885174829 -11.704736654  3.624624396
O  -0.895119287 -8.184107457  3.674199814
O   0.157366786 -7.930665135  0.350813552
O   1.209432585 -10.462551824  0.424204284
O  -3.256727383 -11.805242506  1.913503612
O  -2.225198839 -10.087683857  4.162277021
O  -1.265367215 -7.293236239  2.293065293
O  -0.345205305 -8.827649764 -0.757403272
O   0.606696850 -11.624076362  0.396748665
O  -3.877762929 -10.498678737  2.162089266
O  -2.901877341 -8.633608698  3.343314304
O  -1.843397037 -7.557275565  0.385071318
O  -0.777520839 -10.680828159 -1.027306374
O   0.231724058 -12.288489840  1.727169233
O   1.173756737 -10.200377693  2.910155741
O  -3.375536858 -8.339171778  2.220097636
O  -2.445820450 -8.721271805 -0.551710884
O  -1.489322673 -12.096193856 -0.128830377
O  -0.464256603 -11.918712045  3.371227846
O   0.600361754 -8.835285301  3.314790963
O  -3.888112499 -9.286586411  1.264210794
O  -3.836717943 -9.604224409 -5.529198794
O  -2.840069985 -11.920295385 -3.435214369
O  -1.907532464 -9.898052103 -0.655698554
O  -0.981632947 -7.004198592 -2.291373114
O   0.008726309 -8.348272173 -4.623096570
O  -4.502882274 -10.415710580 -4.360362431
O  -3.478432225 -11.166770035 -1.780193107
O  -2.407187355 -7.966762862 -0.864798654
O  -1.363773898 -6.717179604 -4.011959414
O  -0.390355494 -9.341697910 -5.342581719
O  -4.970643637 -9.630666771 -3.450678190
O  -4.010767168 -9.934009358 -1.310239214
O  -3.076638778 -6.914929675 -2.066620034
O  -2.086844263 -7.573694317 -5.504656145
O  -1.034010157 -10.946704874 -5.092801967
O   0.022187661 -10.515194788 -2.414366541
O  -4.455314864 -8.602244094 -1.783746150
O  -3.420774193 -6.771755836 -3.719779970
O  -2.459816399 -9.120706451 -6.054356574
O  -1.540100204 -11.825165448 -3.917028563
O  -0.591286879 -10.095114804 -1.281334998
O   0.456074177 -8.766670946 -3.037016815
O  -4.088543980 -7.907081714 -4.874442294
O  -3.032614444 -10.900428593 -5.356668317
O  -1.966904208 -11.657434590 -2.030422260
O  -0.956559465 -8.573677705 -0.963586322
O  -0.012143920 -7.620052508 -3.379885521
O  -4.568966252 -8.991163491 -4.774254064
O  -3.637058534 -11.500620849 -4.027137689
O  -2.680639565 -10.440046216 -0.869546463
O  -1.655720369 -7.034982580 -1.752091907
O  -0.589732715 -7.684684368 -4.876142179
O   0.429995714 -9.646506623 -3.816389816
O  -4.022229322 -11.187720348 -2.521506541
O  -3.023401625 -8.787349212 -0.701390499
O  -2.090332868 -6.480870881 -3.228746808
O  -1.165759654 -8.704499707 -5.788444761
O  -0.180973941 -10.931800205 -3.969744803
O  -4.673216620 -9.858941328 -2.160702829
O  -3.655096495 -7.393865831 -1.812643755
O  -2.585117819 -7.129511105 -5.059058996
O  -1.541278484 -10.482203352 -5.661122375
O  -0.566550633 -11.336170083 -2.722643320
O   0.364449181 -9.234882450 -2.427184709
O  -4.190457796 -7.291978031 -3.066329320
O  -3.255819051 -8.536553825 -5.777663528
O  -2.266341099 -11.738494354 -4.453892461
O  -1.213182562 -10.650336266 -1.183665657
O  -0.153550877 -7.924675668 -2.081268307
O  -4.644696133 -8.119725321 -4.091223406
O  -12.200121454  3.170396877 -0.591795627
O  -11.237645319  1.377098509  2.112037735
O  -10.318105621  4.028875660  4.340304446
O  -9.371730883  6.355154233  2.058930206
O  -8.342584988  4.434273502  0.533498650
O  -12.857926215  2.395739052  0.766023940
O  -11.805135956  2.460652112  3.660016077
O  -10.739804839  5.839435538  3.739196448
O  -9.728669124  6.287942362  0.448741140
O  -8.782989259  3.580835127 -0.133444436
O  -13.344860949  2.909004833  1.673925081
O  -12.410754163  3.858403295  3.891514049
O  -11.454541895  6.671819738  2.278147796
O  -10.429823451  5.121211614 -0.876856348
O  -9.362597479  2.097355381  0.391092027
O  -8.332182373  3.308623382  2.488567688
O  -12.803794448  5.153765094  3.233805497
O  -11.801977590  6.457821356  0.665537475
O  -10.868076601  3.547536020 -1.073109749
O  -9.944487585  1.456735610  1.658653645
O  -8.963780201  3.758805496  3.628760319
O  -13.435446394  4.963713666  1.877538790
O  -12.426614002  5.071196302 -0.382674111
O  -11.358195184  1.922869563 -0.024355397
O  -10.314132542  2.001520794  3.386623656
O  -9.338517186  5.147213830  3.674222778
O  -8.406441304  5.313548060  1.317117792
O  -12.964135406  3.908054057 -0.117535425
O  -12.029219109  1.579224967  1.493566427
O  -11.040175706  3.488442310  4.322972498
O  -9.986769149  6.503646889  2.587106408
O  -8.924239512  5.085065142 -0.060873816
O  -13.433786218  3.361755493  1.011421310
O  -12.385339904  2.173428840  2.917329578
O  -11.420862080  5.092615750  4.124700394
O  -10.501221655  6.740414668  1.076960191
O  -9.556754384  3.974655926 -0.802241473
O  -8.535771187  2.562380371  1.468261588
O  -13.031966364  3.638000834  3.253295792
O  -11.983047862  6.320758748  2.728168275
O  -10.918282177  5.737607957 -0.553205030
O  -9.906588938  2.381143735 -0.338984771
O  -8.960284122  2.282063031  2.575600976
O  -13.524691006  4.173090921  2.257247951
O  -12.588837097  6.177868689  1.366969080
O  -11.633054060  4.125190511 -1.005099488
O  -10.608644116  1.361295365  1.139431227
O  -9.540346371  3.232165282  3.917696085
O  -8.503107098  5.326253554  2.362681699
O  -12.992102430  5.245804583  0.379791094
