16
p-cresol
O       2.8162684401     0.1113682301     0.0163310903
C      -1.3803309557    -0.0178891644    -0.0172730905
C      -0.6370184605    -1.2049104107    -0.0154967272
C      -0.6693579695     1.1928014881    -0.0135558127
C       0.7606909318    -1.1919976385    -0.0024571276
C       0.7246034543     1.2255157239    -0.0005343562
C       1.4442752042     0.0270607504     0.0066739434
C      -2.8927268224    -0.0386903942     0.0073016019
H      -1.1536830606    -2.1625763983    -0.0262132607
H      -1.2170045014     2.1332131180    -0.0229422238
H       1.3141200849    -2.1301390738    -0.0041836299
H       1.2654772669     2.1673903908    -0.0004485645
H      -3.3141366392     0.8382938298    -0.4969772163
H      -3.2904217300    -0.9324287830    -0.4867719499
H      -3.2761457855    -0.0375442963     1.0370059995
H       3.1985792780    -0.7796245263     0.0186998185
