31

X       3.3918981570     0.8569227933     0.0000122302
X       2.1657215281     1.5013131300     0.0000044893
X       0.9473047879     0.7908698107     0.0000022564
X       0.9686247243    -0.6285748933     0.0000063423
X       2.2117601665    -1.2850397811     0.0000143235
X       3.4078224286    -0.5683423329     0.0000169284
X       4.6759785160     1.6509541323     0.0000155196
X       4.7179682362    -1.3161853603     0.0000255930
X       2.1004481725     2.5857008160     0.0000005829
X      -0.2255378566     1.4958563704    -0.0000054248
X      -0.2410612303    -1.3095169283     0.0000012184
X       2.2572651620    -2.3680057176     0.0000178425
X       4.4690532401     2.7251351778     0.0000105660
X       5.2923104403     1.4302858018    -0.8813842440
X       5.2923017741     1.4302923893     0.8814230029
X       4.5593525583    -2.3985467799     0.0000291028
X       5.3238148720    -1.0643595044     0.8801421376
X       5.3238223356    -1.0643667153    -0.8800879584
X      -1.3442815267     0.8349020477    -0.0000019416
X      -1.4441380054    -0.6246675746    -0.0000051223
X      -0.2560572452    -2.7785252179    -0.0000001156
X      -2.6333309847     1.6022260534    -0.0000080776
X      -3.7427322689     0.7797136408    -0.0000035648
X      -2.5618746508    -1.3044942241    -0.0000119375
X      -3.7703173102    -0.6356488163    -0.0000156949
X      -2.7106747092     2.8190508537     0.0000358154
X      -4.8513301350    -1.2026320290    -0.0000190665
X       0.2505334713    -3.1543086602     0.8942035044
X       0.2505446083    -3.1543073605    -0.8941979354
X      -1.2944943217    -3.1011460790    -0.0000063686
X      -4.6502136621     1.2358988373     0.0000036009