31
Frame 1
C  -3.289559229  1.697779390 -0.000128670
C  -2.790132200  0.413247273 -0.000128670
C  -1.411651562  0.149447581 -0.000084735
C  -0.500256963  1.228746974 -0.000040430
C  -1.005284080  2.533995278 -0.000037651
C  -2.370757584  2.778273840 -0.000083057
C  -4.774290763  1.941801267 -0.000175014
C  -2.867185848  4.197124459 -0.000079862
H  -3.449514962 -0.444016870 -0.000160423
N  -0.987530019 -1.147684992 -0.000073859
N   0.854568098  0.950254119  0.000008518
H  -0.329987923  3.375332272 -0.000001247
H  -5.321120361  1.001043155 -0.000206151
H  -5.088891277  2.511896198 -0.877205740
H  -5.088950196  2.511871415  0.876850260
H  -2.042329193  4.906850383 -0.000041336
H  -3.487627539  4.399958829  0.875680557
H  -3.487565901  4.399983807 -0.875878442
C   0.282362638 -1.384101176 -0.000046406
C   1.311639893 -0.351362920  0.000000755
C   1.827425769  2.045649863  0.000068376
C   0.749831299 -2.807387227 -0.000113802
N   2.121525893 -2.912843242  0.000083935
N   2.592999164 -0.573122142  0.000072691
C   3.068160418 -1.866790893  0.000079682
O   0.013126608 -3.767015349  0.000132189
O   4.247240241 -2.143625977  0.000379354
H   1.693911473  2.660792147  0.889094174
H   1.693979165  2.660827406 -0.888942825
H   2.817335989  1.607320171  0.000097131
H   2.506254078 -3.847260987  0.000237371
